Ce12 C1 O25                             
   1.00000000000000     
     7.7074639999999999    0.0000000000000000    0.0000000000000000
    -3.8537319999999999    6.6748599999999998    0.0000000000000000
     0.0000000000000000    0.0000000000000000   28.3190309999999990
   Ce   O    C    O 
    12    24     1     1
Selective dynamics
Direct
  0.1657304544793815  0.3326269572553758  0.3870230628453991   T   T   T
  0.1657380795623968  0.8326334282971332  0.3869592354165198   T   T   T
  0.6656864948394289  0.3326533971380439  0.3868613324391043   T   T   T
  0.6656776914093464  0.8325799094401700  0.3868989944762219   T   T   T
 -0.0020271186679495 -0.0011902793910810  0.6119134654710507   T   T   T
 -0.0021746745752078  0.4986316304127776  0.6119590377648668   T   T   T
  0.4979030874100221 -0.0013748557348694  0.6119375896982302   T   T   T
  0.4983784062578893  0.4988800252524776  0.6123239215372882   T   T   T
  0.3321078826193793  0.1658730643547718  0.4994770753152820   T   T   T
  0.3320387206644000  0.6656498212335192  0.4994956936098909   T   T   T
  0.8318398958323658  0.1657665683879688  0.4993941869535326   T   T   T
  0.8321190601608170  0.6658996203846793  0.4994584595943053   T   T   T
  0.1654477132300082  0.3324505655655189  0.4707271903860346   T   T   T
  0.1654970857916703  0.8326642119716458  0.4704407589309156   T   T   T
  0.6654042185682206  0.3323379616771389  0.4705825466480987   T   T   T
  0.6655695160299340  0.8327086367044657  0.4705224161762165   T   T   T
 -0.0010690241846068 -0.0008175648273277  0.3586894789757671   T   T   T
 -0.0011290127270798  0.4991975869307287  0.3586730932230625   T   T   T
  0.4990096193908251 -0.0007273760181055  0.3585617010345238   T   T   T
  0.4990880107468241  0.4992461349246606  0.3586299419182098   T   T   T
  0.3320861693372117  0.1657101866566425  0.5834070202726236   T   T   T
  0.3316112744491010  0.6652857295545523  0.5835027060506599   T   T   T
  0.8308005681044988  0.1657752078951318  0.5831642224865102   T   T   T
  0.8315224927020662  0.6651666889561298  0.5833978936409003   T   T   T
 -0.0013947665890961 -0.0010400025564187  0.5284071607633158   T   T   T
 -0.0011485927338182  0.4995075637445029  0.5283179876794131   T   T   T
  0.4977001249254554 -0.0017716474416841  0.5282279314602911   T   T   T
  0.4987956016108120  0.4992504125593751  0.5283976306405419   T   T   T
  0.3323218680100056  0.1660840291643212  0.4155823327982953   T   T   T
  0.3322728297910972  0.6657649956579692  0.4156115458848749   T   T   T
  0.8324724064022776  0.1660519092251249  0.4155767134161577   T   T   T
  0.8323364127105101  0.6659359564745196  0.4155908979523089   T   T   T
  0.1633409066071072  0.3310383058955222  0.6402548452711903   T   T   T
  0.1645501107197159  0.8320960852543092  0.6403137345378003   T   T   T
  0.6650918865997509  0.3325218580339877  0.6405821982861034   T   T   T
  0.6663127290657219  0.8335003729763221  0.6400797659770480   T   T   T
  0.3183993112730429  0.4927850660180614  0.7714425160095344   T   T   T
  0.3987585601764800  0.5406478379719387  0.7357297144579090   T   T   T
 
  0.00000000E+00  0.00000000E+00  0.00000000E+00
  0.00000000E+00  0.00000000E+00  0.00000000E+00
  0.00000000E+00  0.00000000E+00  0.00000000E+00
  0.00000000E+00  0.00000000E+00  0.00000000E+00
  0.00000000E+00  0.00000000E+00  0.00000000E+00
  0.00000000E+00  0.00000000E+00  0.00000000E+00
  0.00000000E+00  0.00000000E+00  0.00000000E+00
  0.00000000E+00  0.00000000E+00  0.00000000E+00
  0.00000000E+00  0.00000000E+00  0.00000000E+00
  0.00000000E+00  0.00000000E+00  0.00000000E+00
  0.00000000E+00  0.00000000E+00  0.00000000E+00
  0.00000000E+00  0.00000000E+00  0.00000000E+00
  0.00000000E+00  0.00000000E+00  0.00000000E+00
  0.00000000E+00  0.00000000E+00  0.00000000E+00
  0.00000000E+00  0.00000000E+00  0.00000000E+00
  0.00000000E+00  0.00000000E+00  0.00000000E+00
  0.00000000E+00  0.00000000E+00  0.00000000E+00
  0.00000000E+00  0.00000000E+00  0.00000000E+00
  0.00000000E+00  0.00000000E+00  0.00000000E+00
  0.00000000E+00  0.00000000E+00  0.00000000E+00
  0.00000000E+00  0.00000000E+00  0.00000000E+00
  0.00000000E+00  0.00000000E+00  0.00000000E+00
  0.00000000E+00  0.00000000E+00  0.00000000E+00
  0.00000000E+00  0.00000000E+00  0.00000000E+00
  0.00000000E+00  0.00000000E+00  0.00000000E+00
  0.00000000E+00  0.00000000E+00  0.00000000E+00
  0.00000000E+00  0.00000000E+00  0.00000000E+00
  0.00000000E+00  0.00000000E+00  0.00000000E+00
  0.00000000E+00  0.00000000E+00  0.00000000E+00
  0.00000000E+00  0.00000000E+00  0.00000000E+00
  0.00000000E+00  0.00000000E+00  0.00000000E+00
  0.00000000E+00  0.00000000E+00  0.00000000E+00
  0.00000000E+00  0.00000000E+00  0.00000000E+00
  0.00000000E+00  0.00000000E+00  0.00000000E+00
  0.00000000E+00  0.00000000E+00  0.00000000E+00
  0.00000000E+00  0.00000000E+00  0.00000000E+00
  0.00000000E+00  0.00000000E+00  0.00000000E+00
  0.00000000E+00  0.00000000E+00  0.00000000E+00
