Ce12 C1 O25                             
   1.00000000000000     
     7.7074639999999999    0.0000000000000000    0.0000000000000000
    -3.8537319999999999    6.6748599999999998    0.0000000000000000
     0.0000000000000000    0.0000000000000000   28.3190309999999990
   Ce   O    C    O 
    12    24     1     1
Selective dynamics
Direct
  0.1666561790254643  0.3333800378905550  0.3872461508413954   T   T   T
  0.1666209695194507  0.8332540090411443  0.3872743775571273   T   T   T
  0.6667339959347029  0.3333943077801874  0.3872219984811701   T   T   T
  0.6666641441979966  0.8333000623503134  0.3872527244333464   T   T   T
 -0.0017332774286761 -0.0009542415444232  0.6121532936045051   T   T   T
 -0.0013701574306352  0.5000157836165503  0.6122225106765176   T   T   T
  0.4994512765450682 -0.0002255253244594  0.6127028757252981   T   T   T
  0.4997924930403232  0.5000914623040322  0.6124135817171502   T   T   T
  0.3335932488016479  0.1665942944620513  0.4999279320020842   T   T   T
  0.3337364710915841  0.6671294342862893  0.4999099722085190   T   T   T
  0.8326546566868254  0.1662438618299438  0.4998654939735741   T   T   T
  0.8331576821542138  0.6666215042234421  0.4995817927719464   T   T   T
  0.1668373545094175  0.3333867956182079  0.4711539642991904   T   T   T
  0.1664116155163382  0.8332301124362024  0.4711822696838934   T   T   T
  0.6666787718333842  0.3336468037687476  0.4711621642949023   T   T   T
  0.6667110801628029  0.8330497039220450  0.4712063836555178   T   T   T
  0.0000227854423250  0.0000147258087512  0.3589187629029187   T   T   T
  0.0000037119402560  0.4999953086877554  0.3589126479063550   T   T   T
  0.5000001161430397  0.0000119843367782  0.3589201291777683   T   T   T
  0.4999922310384552  0.4999796786167773  0.3589158376335171   T   T   T
  0.3340023934997166  0.1673569552500120  0.5841826240307703   T   T   T
  0.3357881713884833  0.6688716472323557  0.5838037185717370   T   T   T
  0.8283036550145302  0.1631506336263220  0.5831747361485043   T   T   T
  0.8317234918317206  0.6665631803648051  0.5838718120589862   T   T   T
  0.0001727748273047 -0.0003750143539149  0.5286864864020459   T   T   T
  0.0000009345646835  0.5003503404113748  0.5286294429333545   T   T   T
  0.4991202698553163 -0.0001103530825134  0.5285123492100179   T   T   T
  0.5002186090344561  0.4999401467611120  0.5289788788640003   T   T   T
  0.3333732817610217  0.1666964881012810  0.4158793077303535   T   T   T
  0.3333402937025956  0.6666587657367742  0.4159077292992087   T   T   T
  0.8333241285165137  0.1666864137242233  0.4158699457539299   T   T   T
  0.8333103299990949  0.6666304444735875  0.4159603420272462   T   T   T
  0.1596485281544441  0.3329177946411490  0.6383004943637142   T   T   T
  0.1668478536950985  0.8343534973785037  0.6412259489124119   T   T   T
  0.6663376129333149  0.3335469737401907  0.6410483650341000   T   T   T
  0.6661510148763189  0.8317741887315028  0.6414556126054223   T   T   T
  0.3293763789847893  0.3321143344726941  0.7672062290147653   T   T   T
  0.3530109286366189  0.3373794586796539  0.7272771134927332   T   T   T
 
  0.00000000E+00  0.00000000E+00  0.00000000E+00
  0.00000000E+00  0.00000000E+00  0.00000000E+00
  0.00000000E+00  0.00000000E+00  0.00000000E+00
  0.00000000E+00  0.00000000E+00  0.00000000E+00
  0.00000000E+00  0.00000000E+00  0.00000000E+00
  0.00000000E+00  0.00000000E+00  0.00000000E+00
  0.00000000E+00  0.00000000E+00  0.00000000E+00
  0.00000000E+00  0.00000000E+00  0.00000000E+00
  0.00000000E+00  0.00000000E+00  0.00000000E+00
  0.00000000E+00  0.00000000E+00  0.00000000E+00
  0.00000000E+00  0.00000000E+00  0.00000000E+00
  0.00000000E+00  0.00000000E+00  0.00000000E+00
  0.00000000E+00  0.00000000E+00  0.00000000E+00
  0.00000000E+00  0.00000000E+00  0.00000000E+00
  0.00000000E+00  0.00000000E+00  0.00000000E+00
  0.00000000E+00  0.00000000E+00  0.00000000E+00
  0.00000000E+00  0.00000000E+00  0.00000000E+00
  0.00000000E+00  0.00000000E+00  0.00000000E+00
  0.00000000E+00  0.00000000E+00  0.00000000E+00
  0.00000000E+00  0.00000000E+00  0.00000000E+00
  0.00000000E+00  0.00000000E+00  0.00000000E+00
  0.00000000E+00  0.00000000E+00  0.00000000E+00
  0.00000000E+00  0.00000000E+00  0.00000000E+00
  0.00000000E+00  0.00000000E+00  0.00000000E+00
  0.00000000E+00  0.00000000E+00  0.00000000E+00
  0.00000000E+00  0.00000000E+00  0.00000000E+00
  0.00000000E+00  0.00000000E+00  0.00000000E+00
  0.00000000E+00  0.00000000E+00  0.00000000E+00
  0.00000000E+00  0.00000000E+00  0.00000000E+00
  0.00000000E+00  0.00000000E+00  0.00000000E+00
  0.00000000E+00  0.00000000E+00  0.00000000E+00
  0.00000000E+00  0.00000000E+00  0.00000000E+00
  0.00000000E+00  0.00000000E+00  0.00000000E+00
  0.00000000E+00  0.00000000E+00  0.00000000E+00
  0.00000000E+00  0.00000000E+00  0.00000000E+00
  0.00000000E+00  0.00000000E+00  0.00000000E+00
  0.00000000E+00  0.00000000E+00  0.00000000E+00
  0.00000000E+00  0.00000000E+00  0.00000000E+00
