Ce12 C1 O25                             
   1.00000000000000     
     7.7074639999999999    0.0000000000000000    0.0000000000000000
    -3.8537319999999999    6.6748599999999998    0.0000000000000000
     0.0000000000000000    0.0000000000000000   28.3190309999999990
   Ce   O    C    O 
    12    24     1     1
Selective dynamics
Direct
  0.1665937904755780  0.3334062095244220  0.3874887829438255   T   T   T
  0.1665937904755780  0.8331865809511656  0.3874887829438255   T   T   T
  0.6668134190488344  0.3334062095244220  0.3874887829438255   T   T   T
  0.6666669999999968  0.8333330000000032  0.3875061439646861   T   T   T
 -0.0003633191927629 -0.0001816595963815  0.6124193332787917   T   T   T
  0.0000000000000000  0.5000000000000000  0.6123392437660896   T   T   T
  0.5001816595963815 -0.0001816595963815  0.6124193332787917   T   T   T
  0.5001816595963815  0.5003633191927631  0.6124193332787917   T   T   T
  0.3333330000000032  0.1666669999999968  0.4999805828527761   T   T   T
  0.3336211402867803  0.6668110701433853  0.4999977875853255   T   T   T
  0.8331889298566147  0.1663788597132198  0.4999977875853255   T   T   T
  0.8331889298566147  0.6668110701433853  0.4999977875853255   T   T   T
  0.1667055287489152  0.3332944712510847  0.4711199799532667   T   T   T
  0.1667055287489152  0.8334100574978403  0.4711199799532667   T   T   T
  0.6665899425021597  0.3332944712510847  0.4711199799532667   T   T   T
  0.6666669999999968  0.8333330000000032  0.4711804315745781   T   T   T
  0.0000103941988393  0.0000051970994197  0.3592920987313486   T   T   T
  0.0000000000000000  0.5000000000000000  0.3592776319105617   T   T   T
  0.4999948029005803  0.0000051970994197  0.3592920987313486   T   T   T
  0.4999948029005803  0.4999896058011606  0.3592920987313486   T   T   T
  0.3333330000000032  0.1666669999999968  0.5841321541171537   T   T   T
  0.3355741214365282  0.6677875607182592  0.5835312801062483   T   T   T
  0.8322124392817408  0.1644258785634718  0.5835312801062483   T   T   T
  0.8322124392817409  0.6677875607182592  0.5835312801062483   T   T   T
  0.0004251194755524  0.0002125597377762  0.5288573255462510   T   T   T
  0.0000000000000000  0.5000000000000000  0.5286558152363792   T   T   T
  0.4997874402622238  0.0002125597377762  0.5288573255462510   T   T   T
  0.4997874402622238  0.4995748805244476  0.5288573255462510   T   T   T
  0.3333330000000032  0.1666669999999968  0.4161708511204215   T   T   T
  0.3333358230526239  0.6666684115263073  0.4162206096019414   T   T   T
  0.8333315884736927  0.1666641769473760  0.4162206096019414   T   T   T
  0.8333315884736927  0.6666684115263073  0.4162206096019414   T   T   T
  0.1652091904876506  0.3347908095123492  0.6403301590632704   T   T   T
  0.1652091904876506  0.8304173809753111  0.6403301590632704   T   T   T
  0.6695826190246889  0.3347908095123492  0.6403301590632704   T   T   T
  0.6666669999999968  0.8333330000000032  0.6411244721628975   T   T   T
  0.3333330000000032  0.1666669999999968  0.7247903125398055   T   T   T
  0.3333330000000032  0.1666669999999968  0.7651862903238416   T   T   T
 
  0.00000000E+00  0.00000000E+00  0.00000000E+00
  0.00000000E+00  0.00000000E+00  0.00000000E+00
  0.00000000E+00  0.00000000E+00  0.00000000E+00
  0.00000000E+00  0.00000000E+00  0.00000000E+00
  0.00000000E+00  0.00000000E+00  0.00000000E+00
  0.00000000E+00  0.00000000E+00  0.00000000E+00
  0.00000000E+00  0.00000000E+00  0.00000000E+00
  0.00000000E+00  0.00000000E+00  0.00000000E+00
  0.00000000E+00  0.00000000E+00  0.00000000E+00
  0.00000000E+00  0.00000000E+00  0.00000000E+00
  0.00000000E+00  0.00000000E+00  0.00000000E+00
  0.00000000E+00  0.00000000E+00  0.00000000E+00
  0.00000000E+00  0.00000000E+00  0.00000000E+00
  0.00000000E+00  0.00000000E+00  0.00000000E+00
  0.00000000E+00  0.00000000E+00  0.00000000E+00
  0.00000000E+00  0.00000000E+00  0.00000000E+00
  0.00000000E+00  0.00000000E+00  0.00000000E+00
  0.00000000E+00  0.00000000E+00  0.00000000E+00
  0.00000000E+00  0.00000000E+00  0.00000000E+00
  0.00000000E+00  0.00000000E+00  0.00000000E+00
  0.00000000E+00  0.00000000E+00  0.00000000E+00
  0.00000000E+00  0.00000000E+00  0.00000000E+00
  0.00000000E+00  0.00000000E+00  0.00000000E+00
  0.00000000E+00  0.00000000E+00  0.00000000E+00
  0.00000000E+00  0.00000000E+00  0.00000000E+00
  0.00000000E+00  0.00000000E+00  0.00000000E+00
  0.00000000E+00  0.00000000E+00  0.00000000E+00
  0.00000000E+00  0.00000000E+00  0.00000000E+00
  0.00000000E+00  0.00000000E+00  0.00000000E+00
  0.00000000E+00  0.00000000E+00  0.00000000E+00
  0.00000000E+00  0.00000000E+00  0.00000000E+00
  0.00000000E+00  0.00000000E+00  0.00000000E+00
  0.00000000E+00  0.00000000E+00  0.00000000E+00
  0.00000000E+00  0.00000000E+00  0.00000000E+00
  0.00000000E+00  0.00000000E+00  0.00000000E+00
  0.00000000E+00  0.00000000E+00  0.00000000E+00
  0.00000000E+00  0.00000000E+00  0.00000000E+00
  0.00000000E+00  0.00000000E+00  0.00000000E+00
