Ce12 C1 O25                             
   1.00000000000000     
     7.7074639999999999    0.0000000000000000    0.0000000000000000
    -3.8537319999999999    6.6748599999999998    0.0000000000000000
     0.0000000000000000    0.0000000000000000   28.3190309999999990
   Ce   O    C    O 
    12    24     1     1
Selective dynamics
Direct
  0.1666279662402668  0.3333720337597332  0.3874878358242502   T   T   T
  0.1666683061193620  0.8332725362403147  0.3874543825719837   T   T   T
  0.6667274637596853  0.3333316938806379  0.3874543825719837   T   T   T
  0.6666472180513089  0.8333527819486911  0.3874739715529566   T   T   T
 -0.0005765959527868 -0.0001447789961035  0.6123753146625913   T   T   T
  0.0000346997974270  0.4999653002025728  0.6123142603584452   T   T   T
  0.5000853504016631 -0.0000853504016632  0.6124020098324107   T   T   T
  0.5001447789961039  0.5005765959527867  0.6123753146625913   T   T   T
  0.3333446500995388  0.1666553499004611  0.4999477132027249   T   T   T
  0.3334704137587413  0.6667345008498480  0.4999100905908216   T   T   T
  0.8332654991501520  0.1665295862412587  0.4999100905908216   T   T   T
  0.8332429693719756  0.6667570306280244  0.4999302820032597   T   T   T
  0.1666704290139130  0.3333295709860871  0.4711490328222170   T   T   T
  0.1668253596579982  0.8334169345479110  0.4711244466761444   T   T   T
  0.6665830654520890  0.3331746403420018  0.4711244466761444   T   T   T
  0.6665905412840961  0.8334094587159039  0.4711605221499795   T   T   T
 -0.0000001491615021 -0.0000236098767744  0.3592232426249618   T   T   T
 -0.0000104238450111  0.5000104238450112  0.3592130975075257   T   T   T
  0.4999962516599769  0.0000037483400231  0.3592233461106572   T   T   T
  0.5000236098767746  0.5000001491615019  0.3592232426249618   T   T   T
  0.3336243217500460  0.1663756782499539  0.5840425759811815   T   T   T
  0.3347293394391967  0.6673575829840771  0.5837500592817715   T   T   T
  0.8326424170159229  0.1652706605608033  0.5837500592817715   T   T   T
  0.8322829411709953  0.6677170588290047  0.5834027945155117   T   T   T
  0.0003776116006890  0.0004032987663367  0.5287655818036188   T   T   T
  0.0000744354751023  0.4999255645248976  0.5287472414301503   T   T   T
  0.4998982364351243  0.0001017635648759  0.5289796682705570   T   T   T
  0.4995967012336633  0.4996223883993111  0.5287655818036188   T   T   T
  0.3333617923060144  0.1666382076939857  0.4161246729578911   T   T   T
  0.3333456862730117  0.6667114006450986  0.4161547544570725   T   T   T
  0.8332885993549014  0.1666543137269883  0.4161547544570725   T   T   T
  0.8333439424714710  0.6666560575285290  0.4161103726985184   T   T   T
  0.1669726400517929  0.3330273599482070  0.6408969027858231   T   T   T
  0.1642427784262417  0.8304187963651835  0.6400368673152725   T   T   T
  0.6695812036348165  0.3357572215737582  0.6400368673152725   T   T   T
  0.6662316248709921  0.8337683751290079  0.6411181394241502   T   T   T
  0.3886125379463040  0.1113874620536958  0.7655838985171605   T   T   T
  0.3892097868119405  0.1107902131880594  0.7252181820861513   T   T   T
 
  0.00000000E+00  0.00000000E+00  0.00000000E+00
  0.00000000E+00  0.00000000E+00  0.00000000E+00
  0.00000000E+00  0.00000000E+00  0.00000000E+00
  0.00000000E+00  0.00000000E+00  0.00000000E+00
  0.00000000E+00  0.00000000E+00  0.00000000E+00
  0.00000000E+00  0.00000000E+00  0.00000000E+00
  0.00000000E+00  0.00000000E+00  0.00000000E+00
  0.00000000E+00  0.00000000E+00  0.00000000E+00
  0.00000000E+00  0.00000000E+00  0.00000000E+00
  0.00000000E+00  0.00000000E+00  0.00000000E+00
  0.00000000E+00  0.00000000E+00  0.00000000E+00
  0.00000000E+00  0.00000000E+00  0.00000000E+00
  0.00000000E+00  0.00000000E+00  0.00000000E+00
  0.00000000E+00  0.00000000E+00  0.00000000E+00
  0.00000000E+00  0.00000000E+00  0.00000000E+00
  0.00000000E+00  0.00000000E+00  0.00000000E+00
  0.00000000E+00  0.00000000E+00  0.00000000E+00
  0.00000000E+00  0.00000000E+00  0.00000000E+00
  0.00000000E+00  0.00000000E+00  0.00000000E+00
  0.00000000E+00  0.00000000E+00  0.00000000E+00
  0.00000000E+00  0.00000000E+00  0.00000000E+00
  0.00000000E+00  0.00000000E+00  0.00000000E+00
  0.00000000E+00  0.00000000E+00  0.00000000E+00
  0.00000000E+00  0.00000000E+00  0.00000000E+00
  0.00000000E+00  0.00000000E+00  0.00000000E+00
  0.00000000E+00  0.00000000E+00  0.00000000E+00
  0.00000000E+00  0.00000000E+00  0.00000000E+00
  0.00000000E+00  0.00000000E+00  0.00000000E+00
  0.00000000E+00  0.00000000E+00  0.00000000E+00
  0.00000000E+00  0.00000000E+00  0.00000000E+00
  0.00000000E+00  0.00000000E+00  0.00000000E+00
  0.00000000E+00  0.00000000E+00  0.00000000E+00
  0.00000000E+00  0.00000000E+00  0.00000000E+00
  0.00000000E+00  0.00000000E+00  0.00000000E+00
  0.00000000E+00  0.00000000E+00  0.00000000E+00
  0.00000000E+00  0.00000000E+00  0.00000000E+00
  0.00000000E+00  0.00000000E+00  0.00000000E+00
  0.00000000E+00  0.00000000E+00  0.00000000E+00
