Ce12 C1 O25                             
   1.00000000000000     
     7.7074639999999999    0.0000000000000000    0.0000000000000000
    -3.8537319999999999    6.6748599999999998    0.0000000000000000
     0.0000000000000000    0.0000000000000000   28.3190309999999990
   Ce   O    C    O 
    12    24     1     1
Selective dynamics
Direct
  0.1689654712140644  0.3345903765001583  0.3862934472328156   T   T   T
  0.1687255221754790  0.8343194658268596  0.3862992285243324   T   T   T
  0.6688731007904211  0.3345771063765406  0.3862740699343530   T   T   T
  0.6687708031734695  0.8342564097884192  0.3863419312593271   T   T   T
  0.0018140576268925 -0.0007345926642587  0.6111887868677636   T   T   T
  0.0019232044775083  0.5001841008039256  0.6118764454580536   T   T   T
  0.5022363032636580  0.0002708326498874  0.6111630444130755   T   T   T
  0.5021407905480050  0.5000049267645229  0.6112313314389971   T   T   T
  0.3352872915110049  0.1670928315103439  0.4988466353060319   T   T   T
  0.3351609769013539  0.6670801364871369  0.4989462909860995   T   T   T
  0.8355892716828823  0.1673102256558666  0.4988912353298940   T   T   T
  0.8355630083726237  0.6669405602301393  0.4987046735447215   T   T   T
  0.1685988154652834  0.3336897728332818  0.4701673808683324   T   T   T
  0.1692605552676150  0.8342927044053804  0.4698653847711227   T   T   T
  0.6685338522766520  0.3333588602481497  0.4698758006378839   T   T   T
  0.6686418644436247  0.8343618363428739  0.4698723147752085   T   T   T
  0.0018689765580229  0.0003569239389455  0.3580253619653984   T   T   T
  0.0021999221499373  0.5019336902747459  0.3578989233442136   T   T   T
  0.5021092815545329  0.0010417370863392  0.3580270959246887   T   T   T
  0.5028029819901877  0.5017823960792255  0.3578806187003629   T   T   T
  0.3347897408119727  0.1675160920704885  0.5825087182837805   T   T   T
  0.3349327774825905  0.6660078381436896  0.5826943213540200   T   T   T
  0.8369587646642027  0.1676851715911785  0.5827876116661946   T   T   T
  0.8348379971288981  0.6658108849888538  0.5830808690125575   T   T   T
  0.0013084804369599 -0.0013964175769728  0.5277018256158845   T   T   T
  0.0017092981567369  0.5011400217274199  0.5277474948567608   T   T   T
  0.5018585372176388  0.0003384315829175  0.5279885867790062   T   T   T
  0.5030665848878343  0.5009708194813040  0.5275539494458024   T   T   T
  0.3353093588584783  0.1682105020765509  0.4149158215896294   T   T   T
  0.3350593639335240  0.6668632253726615  0.4150413745133401   T   T   T
  0.8361835399174348  0.1681958302554467  0.4148138973191604   T   T   T
  0.8353746173529921  0.6674535958826356  0.4150709613149878   T   T   T
  0.1697772151073522  0.3335151821366938  0.6397317973651547   T   T   T
  0.1697825026732863  0.8345449068746323  0.6393769997301771   T   T   T
  0.6677653359306515  0.3315717520986774  0.6396818728200163   T   T   T
  0.6690021723356772  0.8342940376540560  0.6397407547075672   T   T   T
  0.0169632688711957  0.3526234829163129  0.7358451677757065   T   T   T
  0.0429313927893549  0.2346323415849694  0.7538379745675760   T   T   T
 
  0.00000000E+00  0.00000000E+00  0.00000000E+00
  0.00000000E+00  0.00000000E+00  0.00000000E+00
  0.00000000E+00  0.00000000E+00  0.00000000E+00
  0.00000000E+00  0.00000000E+00  0.00000000E+00
  0.00000000E+00  0.00000000E+00  0.00000000E+00
  0.00000000E+00  0.00000000E+00  0.00000000E+00
  0.00000000E+00  0.00000000E+00  0.00000000E+00
  0.00000000E+00  0.00000000E+00  0.00000000E+00
  0.00000000E+00  0.00000000E+00  0.00000000E+00
  0.00000000E+00  0.00000000E+00  0.00000000E+00
  0.00000000E+00  0.00000000E+00  0.00000000E+00
  0.00000000E+00  0.00000000E+00  0.00000000E+00
  0.00000000E+00  0.00000000E+00  0.00000000E+00
  0.00000000E+00  0.00000000E+00  0.00000000E+00
  0.00000000E+00  0.00000000E+00  0.00000000E+00
  0.00000000E+00  0.00000000E+00  0.00000000E+00
  0.00000000E+00  0.00000000E+00  0.00000000E+00
  0.00000000E+00  0.00000000E+00  0.00000000E+00
  0.00000000E+00  0.00000000E+00  0.00000000E+00
  0.00000000E+00  0.00000000E+00  0.00000000E+00
  0.00000000E+00  0.00000000E+00  0.00000000E+00
  0.00000000E+00  0.00000000E+00  0.00000000E+00
  0.00000000E+00  0.00000000E+00  0.00000000E+00
  0.00000000E+00  0.00000000E+00  0.00000000E+00
  0.00000000E+00  0.00000000E+00  0.00000000E+00
  0.00000000E+00  0.00000000E+00  0.00000000E+00
  0.00000000E+00  0.00000000E+00  0.00000000E+00
  0.00000000E+00  0.00000000E+00  0.00000000E+00
  0.00000000E+00  0.00000000E+00  0.00000000E+00
  0.00000000E+00  0.00000000E+00  0.00000000E+00
  0.00000000E+00  0.00000000E+00  0.00000000E+00
  0.00000000E+00  0.00000000E+00  0.00000000E+00
  0.00000000E+00  0.00000000E+00  0.00000000E+00
  0.00000000E+00  0.00000000E+00  0.00000000E+00
  0.00000000E+00  0.00000000E+00  0.00000000E+00
  0.00000000E+00  0.00000000E+00  0.00000000E+00
  0.00000000E+00  0.00000000E+00  0.00000000E+00
  0.00000000E+00  0.00000000E+00  0.00000000E+00
