Ce12 C1 O25                             
   1.00000000000000     
     7.7074639999999999    0.0000000000000000    0.0000000000000000
    -3.8537319999999999    6.6748599999999998    0.0000000000000000
     0.0000000000000000    0.0000000000000000   28.3190309999999990
   Ce   O    C    O 
    12    24     1     1
Selective dynamics
Direct
  0.1666378043974799  0.3333812658762304  0.3874421701896950   T   T   T
  0.1666441073660097  0.8332638830967113  0.3874321254489317   T   T   T
  0.6667358458078894  0.3333665345389165  0.3874326153735900   T   T   T
  0.6666553537712226  0.8333344525044709  0.3874477864533142   T   T   T
 -0.0002904836711718 -0.0000944877036688  0.6124771795432877   T   T   T
  0.0003184876500077  0.5001522404634856  0.6123778124812276   T   T   T
  0.5002379734123656 -0.0002340453405690  0.6123764329812780   T   T   T
  0.5002853431851942  0.5006560653295323  0.6123658108472759   T   T   T
  0.3332734405899223  0.1666296632232373  0.4999239623797285   T   T   T
  0.3334575488184283  0.6667346699259042  0.4998758510170703   T   T   T
  0.8333162247202852  0.1664850377909817  0.4999171956528658   T   T   T
  0.8333163246252656  0.6668476320776263  0.4999233759942192   T   T   T
  0.1667308614146862  0.3333765246396637  0.4711025861277411   T   T   T
  0.1667710723703518  0.8333807543278371  0.4710949721647867   T   T   T
  0.6665889116489884  0.3332671514545199  0.4710912100362452   T   T   T
  0.6665828998058067  0.8333220923815039  0.4711294149488519   T   T   T
 -0.0000018929901261 -0.0000102843643124  0.3591868388198354   T   T   T
  0.0000025265755904  0.5000146041995676  0.3591765877001223   T   T   T
  0.4999941891615180 -0.0000051049770257  0.3591847767806886   T   T   T
  0.5000085062934622  0.5000087481858035  0.3591845772736850   T   T   T
  0.3335925286733834  0.1666336812915571  0.5840494491113150   T   T   T
  0.3346198440246483  0.6673069423256881  0.5837560335991187   T   T   T
  0.8329513282795920  0.1650964235439332  0.5836854526758132   T   T   T
  0.8328736746380648  0.6680343498754364  0.5835571236321687   T   T   T
  0.0004054122377101  0.0002667794958800  0.5288121004453112   T   T   T
  0.0000794336673483  0.5000206239984586  0.5287964984587457   T   T   T
  0.4998193892026249  0.0000293392030177  0.5289411245053344   T   T   T
  0.4997435720304213  0.4997495598262007  0.5288657226589819   T   T   T
  0.3333318089045863  0.1666483815878301  0.4160991080404338   T   T   T
  0.3333314316188570  0.6666864278956597  0.4161304374597891   T   T   T
  0.8333233203273176  0.1666633928564235  0.4161169337179100   T   T   T
  0.8333494478941476  0.6666750107496601  0.4161055391498379   T   T   T
  0.1666662789856499  0.3334376622502270  0.6407938346782842   T   T   T
  0.1657895270142956  0.8319438225849808  0.6405028045246397   T   T   T
  0.6704962195973013  0.3356572397159043  0.6398879622350663   T   T   T
  0.6662884244135184  0.8333905488599742  0.6411272805300361   T   T   T
  0.3894551802911891  0.1671075484897531  0.7655453951903454   T   T   T
  0.3843961332461657  0.1641088678189921  0.7251999171724265   T   T   T
 
  0.00000000E+00  0.00000000E+00  0.00000000E+00
  0.00000000E+00  0.00000000E+00  0.00000000E+00
  0.00000000E+00  0.00000000E+00  0.00000000E+00
  0.00000000E+00  0.00000000E+00  0.00000000E+00
  0.00000000E+00  0.00000000E+00  0.00000000E+00
  0.00000000E+00  0.00000000E+00  0.00000000E+00
  0.00000000E+00  0.00000000E+00  0.00000000E+00
  0.00000000E+00  0.00000000E+00  0.00000000E+00
  0.00000000E+00  0.00000000E+00  0.00000000E+00
  0.00000000E+00  0.00000000E+00  0.00000000E+00
  0.00000000E+00  0.00000000E+00  0.00000000E+00
  0.00000000E+00  0.00000000E+00  0.00000000E+00
  0.00000000E+00  0.00000000E+00  0.00000000E+00
  0.00000000E+00  0.00000000E+00  0.00000000E+00
  0.00000000E+00  0.00000000E+00  0.00000000E+00
  0.00000000E+00  0.00000000E+00  0.00000000E+00
  0.00000000E+00  0.00000000E+00  0.00000000E+00
  0.00000000E+00  0.00000000E+00  0.00000000E+00
  0.00000000E+00  0.00000000E+00  0.00000000E+00
  0.00000000E+00  0.00000000E+00  0.00000000E+00
  0.00000000E+00  0.00000000E+00  0.00000000E+00
  0.00000000E+00  0.00000000E+00  0.00000000E+00
  0.00000000E+00  0.00000000E+00  0.00000000E+00
  0.00000000E+00  0.00000000E+00  0.00000000E+00
  0.00000000E+00  0.00000000E+00  0.00000000E+00
  0.00000000E+00  0.00000000E+00  0.00000000E+00
  0.00000000E+00  0.00000000E+00  0.00000000E+00
  0.00000000E+00  0.00000000E+00  0.00000000E+00
  0.00000000E+00  0.00000000E+00  0.00000000E+00
  0.00000000E+00  0.00000000E+00  0.00000000E+00
  0.00000000E+00  0.00000000E+00  0.00000000E+00
  0.00000000E+00  0.00000000E+00  0.00000000E+00
  0.00000000E+00  0.00000000E+00  0.00000000E+00
  0.00000000E+00  0.00000000E+00  0.00000000E+00
  0.00000000E+00  0.00000000E+00  0.00000000E+00
  0.00000000E+00  0.00000000E+00  0.00000000E+00
  0.00000000E+00  0.00000000E+00  0.00000000E+00
  0.00000000E+00  0.00000000E+00  0.00000000E+00
