Ce12 C1 O25                             
   1.00000000000000     
     7.7074639999999999    0.0000000000000000    0.0000000000000000
    -3.8537319999999999    6.6748599999999998    0.0000000000000000
     0.0000000000000000    0.0000000000000000   28.3190309999999990
   Ce   O    C    O 
    12    24     1     1
Selective dynamics
Direct
  0.1692136277993980  0.3343700853573826  0.3870837972451920   T   T   T
  0.1690304365752277  0.8346121330046062  0.3868515449488298   T   T   T
  0.6687910569382727  0.3343024647125946  0.3870999595325092   T   T   T
  0.6691974449087018  0.8347005856674669  0.3868035577777111   T   T   T
  0.0038362350909937  0.0017634958057270  0.6136912603243625   T   T   T
  0.0051966463776250  0.5025921347789802  0.6121854726402749   T   T   T
  0.5050405835636925  0.0024683915426834  0.6123593639304389   T   T   T
  0.5059499656265917  0.5036286578281985  0.6121690480186120   T   T   T
  0.3364831479018557  0.1681376698196241  0.5002524846274113   T   T   T
  0.3374034691446312  0.6684389598663354  0.4998549976122308   T   T   T
  0.8372569087122055  0.1679895541946176  0.5001636466384725   T   T   T
  0.8373539152727386  0.6686906451749380  0.4998230714289235   T   T   T
  0.1708860071710197  0.3350755309602419  0.4711052337214084   T   T   T
  0.1705266463545856  0.8349129154659692  0.4708754020917245   T   T   T
  0.6693483928048425  0.3339571162340208  0.4707256679527682   T   T   T
  0.6693816868901102  0.8351332140465718  0.4706357998397097   T   T   T
  0.0025068850832156  0.0013350153891117  0.3583319982254129   T   T   T
  0.0021060773211876  0.5010902877336703  0.3586818735709874   T   T   T
  0.5022916348569354  0.0015411381816549  0.3584693704449475   T   T   T
  0.5025767750006660  0.5009329801469780  0.3582995178677108   T   T   T
  0.3360400184720934  0.1672346093010602  0.5841936822239788   T   T   T
  0.3383401686693545  0.6709322196031994  0.5828292781998476   T   T   T
  0.8395446687537983  0.1686740312482766  0.5848290953774744   T   T   T
  0.8388181653753106  0.6703617236606360  0.5835442361380150   T   T   T
  0.0029292976187590  0.0018697722209690  0.5289700852691578   T   T   T
  0.0026633160510871  0.5001083456166749  0.5287554853584542   T   T   T
  0.5055540344664204  0.0036827363994784  0.5292851647201925   T   T   T
  0.5050704750217609  0.5018521037345675  0.5287531093076825   T   T   T
  0.3352635336925854  0.1677290672987965  0.4157150018220421   T   T   T
  0.3359318964459864  0.6676094014498209  0.4154568246645133   T   T   T
  0.8367157463780952  0.1679400037959639  0.4157790420801070   T   T   T
  0.8357448604667754  0.6682415498981434  0.4156083526838343   T   T   T
  0.1792823184185710  0.3440151247719708  0.6406032698158233   T   T   T
  0.1705710126334543  0.8316617420202657  0.6405369260291344   T   T   T
  0.6721381892289239  0.3364452249218289  0.6407932109060879   T   T   T
  0.6689378593073103  0.8344166328677318  0.6406584515637432   T   T   T
  0.1174785506836322  0.0492344277186509  0.7123553475072638   T   T   T
  0.2261003449215895  0.1045403075605952  0.7436603678930067   T   T   T
 
  0.00000000E+00  0.00000000E+00  0.00000000E+00
  0.00000000E+00  0.00000000E+00  0.00000000E+00
  0.00000000E+00  0.00000000E+00  0.00000000E+00
  0.00000000E+00  0.00000000E+00  0.00000000E+00
  0.00000000E+00  0.00000000E+00  0.00000000E+00
  0.00000000E+00  0.00000000E+00  0.00000000E+00
  0.00000000E+00  0.00000000E+00  0.00000000E+00
  0.00000000E+00  0.00000000E+00  0.00000000E+00
  0.00000000E+00  0.00000000E+00  0.00000000E+00
  0.00000000E+00  0.00000000E+00  0.00000000E+00
  0.00000000E+00  0.00000000E+00  0.00000000E+00
  0.00000000E+00  0.00000000E+00  0.00000000E+00
  0.00000000E+00  0.00000000E+00  0.00000000E+00
  0.00000000E+00  0.00000000E+00  0.00000000E+00
  0.00000000E+00  0.00000000E+00  0.00000000E+00
  0.00000000E+00  0.00000000E+00  0.00000000E+00
  0.00000000E+00  0.00000000E+00  0.00000000E+00
  0.00000000E+00  0.00000000E+00  0.00000000E+00
  0.00000000E+00  0.00000000E+00  0.00000000E+00
  0.00000000E+00  0.00000000E+00  0.00000000E+00
  0.00000000E+00  0.00000000E+00  0.00000000E+00
  0.00000000E+00  0.00000000E+00  0.00000000E+00
  0.00000000E+00  0.00000000E+00  0.00000000E+00
  0.00000000E+00  0.00000000E+00  0.00000000E+00
  0.00000000E+00  0.00000000E+00  0.00000000E+00
  0.00000000E+00  0.00000000E+00  0.00000000E+00
  0.00000000E+00  0.00000000E+00  0.00000000E+00
  0.00000000E+00  0.00000000E+00  0.00000000E+00
  0.00000000E+00  0.00000000E+00  0.00000000E+00
  0.00000000E+00  0.00000000E+00  0.00000000E+00
  0.00000000E+00  0.00000000E+00  0.00000000E+00
  0.00000000E+00  0.00000000E+00  0.00000000E+00
  0.00000000E+00  0.00000000E+00  0.00000000E+00
  0.00000000E+00  0.00000000E+00  0.00000000E+00
  0.00000000E+00  0.00000000E+00  0.00000000E+00
  0.00000000E+00  0.00000000E+00  0.00000000E+00
  0.00000000E+00  0.00000000E+00  0.00000000E+00
  0.00000000E+00  0.00000000E+00  0.00000000E+00
