Ce12 C1 O25                             
   1.00000000000000     
     7.7074639999999999    0.0000000000000000    0.0000000000000000
    -3.8537319999999999    6.6748599999999998    0.0000000000000000
     0.0000000000000000    0.0000000000000000   28.3190309999999990
   Ce   O    C    O 
    12    24     1     1
Selective dynamics
Direct
  0.1666564690685212  0.3333913265944505  0.3874439716442229   T   T   T
  0.1666290286552728  0.8332570573105553  0.3874778759322539   T   T   T
  0.6667358575259198  0.3333913265944505  0.3874439716442229   T   T   T
  0.6666544966708030  0.8333079933416155  0.3874611450769846   T   T   T
 -0.0006364383117203 -0.0004670612222175  0.6123749194940938   T   T   T
  0.0000460292006189  0.5000920584012377  0.6123222141151106   T   T   T
  0.5001693770895027 -0.0004670612222175  0.6123749194940938   T   T   T
  0.5001025885617360  0.5002051771234720  0.6124211507677949   T   T   T
  0.3333443102331030  0.1666896204661961  0.4999352457882503   T   T   T
  0.3334986223488324  0.6667493495352287  0.4999060172527304   T   T   T
  0.8332313682663980  0.1664637365327860  0.4999180013005995   T   T   T
  0.8332497271864059  0.6667493495352287  0.4999060172527304   T   T   T
  0.1667986449154334  0.3334114507211330  0.4710979305009033   T   T   T
  0.1666588316568187  0.8333166633136473  0.4711211008551010   T   T   T
  0.6666138058056893  0.3334114507211330  0.4710979305009033   T   T   T
  0.6666010384718513  0.8332010769437121  0.4711429267915296   T   T   T
  0.0000176290410182  0.0000249096798983  0.3592215058702434   T   T   T
 -0.0000059004839094  0.4999881990321811  0.3592144009516594   T   T   T
  0.5000072806388801  0.0000249096798983  0.3592215058702434   T   T   T
  0.4999893770274216  0.4999787540548431  0.3592179278545493   T   T   T
  0.3336097662982317  0.1672205325964536  0.5840405434812023   T   T   T
  0.3346987125616786  0.6673621694887090  0.5837570683206079   T   T   T
  0.8323067788604364  0.1646145577208638  0.5834182362125416   T   T   T
  0.8326624569270402  0.6673621694887090  0.5837570683206079   T   T   T
  0.0003335160039239 -0.0000399453226753  0.5288015372961513   T   T   T
  0.0000720903587638  0.5001441807175280  0.5287821411696524   T   T   T
  0.4996265386734008 -0.0000399453226753  0.5288015372961513   T   T   T
  0.4999194148909643  0.4998388297819288  0.5290130107371498   T   T   T
  0.3333526127297544  0.1667062254594990  0.4161168033766711   T   T   T
  0.3333235942899709  0.6666349629763964  0.4161539631558843   T   T   T
  0.8333495846208930  0.1667001692417761  0.4161139451446298   T   T   T
  0.8333103686864353  0.6666349629763964  0.4161539631558843   T   T   T
  0.1642329444342689  0.3338309317776308  0.6400506155659010   T   T   T
  0.1669447693123293  0.8338885386246679  0.6408971314690093   T   T   T
  0.6695989873433521  0.3338309317776308  0.6400506155659010   T   T   T
  0.6662510045722427  0.8325010091444951  0.6411094643389106   T   T   T
  0.3886156603843599  0.2772313207687194  0.7655656011447062   T   T   T
  0.3892070554833552  0.2784141109667102  0.7252120752902143   T   T   T
 
  0.00000000E+00  0.00000000E+00  0.00000000E+00
  0.00000000E+00  0.00000000E+00  0.00000000E+00
  0.00000000E+00  0.00000000E+00  0.00000000E+00
  0.00000000E+00  0.00000000E+00  0.00000000E+00
  0.00000000E+00  0.00000000E+00  0.00000000E+00
  0.00000000E+00  0.00000000E+00  0.00000000E+00
  0.00000000E+00  0.00000000E+00  0.00000000E+00
  0.00000000E+00  0.00000000E+00  0.00000000E+00
  0.00000000E+00  0.00000000E+00  0.00000000E+00
  0.00000000E+00  0.00000000E+00  0.00000000E+00
  0.00000000E+00  0.00000000E+00  0.00000000E+00
  0.00000000E+00  0.00000000E+00  0.00000000E+00
  0.00000000E+00  0.00000000E+00  0.00000000E+00
  0.00000000E+00  0.00000000E+00  0.00000000E+00
  0.00000000E+00  0.00000000E+00  0.00000000E+00
  0.00000000E+00  0.00000000E+00  0.00000000E+00
  0.00000000E+00  0.00000000E+00  0.00000000E+00
  0.00000000E+00  0.00000000E+00  0.00000000E+00
  0.00000000E+00  0.00000000E+00  0.00000000E+00
  0.00000000E+00  0.00000000E+00  0.00000000E+00
  0.00000000E+00  0.00000000E+00  0.00000000E+00
  0.00000000E+00  0.00000000E+00  0.00000000E+00
  0.00000000E+00  0.00000000E+00  0.00000000E+00
  0.00000000E+00  0.00000000E+00  0.00000000E+00
  0.00000000E+00  0.00000000E+00  0.00000000E+00
  0.00000000E+00  0.00000000E+00  0.00000000E+00
  0.00000000E+00  0.00000000E+00  0.00000000E+00
  0.00000000E+00  0.00000000E+00  0.00000000E+00
  0.00000000E+00  0.00000000E+00  0.00000000E+00
  0.00000000E+00  0.00000000E+00  0.00000000E+00
  0.00000000E+00  0.00000000E+00  0.00000000E+00
  0.00000000E+00  0.00000000E+00  0.00000000E+00
  0.00000000E+00  0.00000000E+00  0.00000000E+00
  0.00000000E+00  0.00000000E+00  0.00000000E+00
  0.00000000E+00  0.00000000E+00  0.00000000E+00
  0.00000000E+00  0.00000000E+00  0.00000000E+00
  0.00000000E+00  0.00000000E+00  0.00000000E+00
  0.00000000E+00  0.00000000E+00  0.00000000E+00
