Ce12 C1 O25                             
   1.00000000000000     
     7.7074639999999999    0.0000000000000000    0.0000000000000000
    -3.8537319999999999    6.6748599999999998    0.0000000000000000
     0.0000000000000000    0.0000000000000000   28.3190309999999990
   Ce   O    C    O 
    12    24     1     1
Selective dynamics
Direct
  0.1645772803453412  0.3317025258056166  0.3860650010636911   T   T   T
  0.1644925955050550  0.8314365196362152  0.3860629351243502   T   T   T
  0.6645295822478421  0.3316332466543713  0.3860676419454579   T   T   T
  0.6643969142694397  0.8314431971948748  0.3859398852744196   T   T   T
 -0.0017062122892111 -0.0010623700467113  0.6110322918302435   T   T   T
 -0.0013455981212637  0.4992661918097712  0.6106512439679035   T   T   T
  0.4984419967769573 -0.0009686599533611  0.6109494543404638   T   T   T
  0.4983815189768339  0.4988670796438594  0.6109617313433193   T   T   T
  0.3315279311234183  0.1653317531037493  0.4985784495573128   T   T   T
  0.3317695504479623  0.6654918305619540  0.4984571893560548   T   T   T
  0.8315847259229249  0.1652607987338785  0.4985107901981287   T   T   T
  0.8315912287219135  0.6655357967843241  0.4984906026912040   T   T   T
  0.1645289568079298  0.3316254117809861  0.4695376682101169   T   T   T
  0.1646204414424697  0.8319334479933576  0.4694163878909668   T   T   T
  0.6649148085980046  0.3318886654148865  0.4697023869558351   T   T   T
  0.6651566098000171  0.8321504842861066  0.4695408784227993   T   T   T
 -0.0023397508753335 -0.0020593162675697  0.3579006451922581   T   T   T
 -0.0018445342460219  0.4984218858773151  0.3578031125522841   T   T   T
  0.4973453715298226 -0.0023476244573601  0.3577344594463333   T   T   T
  0.4974656771069726  0.4981939339945808  0.3576435157362635   T   T   T
  0.3311141514498525  0.1653192872949317  0.5822740687719308   T   T   T
  0.3321496207780300  0.6657313579637414  0.5823601565534812   T   T   T
  0.8320230272177760  0.1657850224776025  0.5820819854766681   T   T   T
  0.8318174754624074  0.6657979977348780  0.5822662943257165   T   T   T
 -0.0017741233420557 -0.0014535035721093  0.5273803846621876   T   T   T
 -0.0009115369469131  0.4995368737026979  0.5273870328315124   T   T   T
  0.4979092540476748 -0.0017017477256637  0.5274046961785469   T   T   T
  0.4982166874775569  0.4990768839958237  0.5274330777652538   T   T   T
  0.3317071321036607  0.1654037127126938  0.4147141470979518   T   T   T
  0.3314217619246476  0.6647759208258934  0.4146678861550588   T   T   T
  0.8308983997221191  0.1650519049806832  0.4145317782271118   T   T   T
  0.8305732968452606  0.6643073660739330  0.4145598708761558   T   T   T
  0.1645284515659685  0.3319919482972181  0.6392003489505376   T   T   T
  0.1648399469967652  0.8319459179305331  0.6392884772691936   T   T   T
  0.6640660032969653  0.3315310670974920  0.6387351433137034   T   T   T
  0.6656410503583000  0.8327891047496742  0.6393431081332163   T   T   T
  0.0376544684986758  0.4809121453398372  0.7553584140903764   T   T   T
  0.8818678384522338  0.4583419415692924  0.7477568582219856   T   T   T
 
  0.00000000E+00  0.00000000E+00  0.00000000E+00
  0.00000000E+00  0.00000000E+00  0.00000000E+00
  0.00000000E+00  0.00000000E+00  0.00000000E+00
  0.00000000E+00  0.00000000E+00  0.00000000E+00
  0.00000000E+00  0.00000000E+00  0.00000000E+00
  0.00000000E+00  0.00000000E+00  0.00000000E+00
  0.00000000E+00  0.00000000E+00  0.00000000E+00
  0.00000000E+00  0.00000000E+00  0.00000000E+00
  0.00000000E+00  0.00000000E+00  0.00000000E+00
  0.00000000E+00  0.00000000E+00  0.00000000E+00
  0.00000000E+00  0.00000000E+00  0.00000000E+00
  0.00000000E+00  0.00000000E+00  0.00000000E+00
  0.00000000E+00  0.00000000E+00  0.00000000E+00
  0.00000000E+00  0.00000000E+00  0.00000000E+00
  0.00000000E+00  0.00000000E+00  0.00000000E+00
  0.00000000E+00  0.00000000E+00  0.00000000E+00
  0.00000000E+00  0.00000000E+00  0.00000000E+00
  0.00000000E+00  0.00000000E+00  0.00000000E+00
  0.00000000E+00  0.00000000E+00  0.00000000E+00
  0.00000000E+00  0.00000000E+00  0.00000000E+00
  0.00000000E+00  0.00000000E+00  0.00000000E+00
  0.00000000E+00  0.00000000E+00  0.00000000E+00
  0.00000000E+00  0.00000000E+00  0.00000000E+00
  0.00000000E+00  0.00000000E+00  0.00000000E+00
  0.00000000E+00  0.00000000E+00  0.00000000E+00
  0.00000000E+00  0.00000000E+00  0.00000000E+00
  0.00000000E+00  0.00000000E+00  0.00000000E+00
  0.00000000E+00  0.00000000E+00  0.00000000E+00
  0.00000000E+00  0.00000000E+00  0.00000000E+00
  0.00000000E+00  0.00000000E+00  0.00000000E+00
  0.00000000E+00  0.00000000E+00  0.00000000E+00
  0.00000000E+00  0.00000000E+00  0.00000000E+00
  0.00000000E+00  0.00000000E+00  0.00000000E+00
  0.00000000E+00  0.00000000E+00  0.00000000E+00
  0.00000000E+00  0.00000000E+00  0.00000000E+00
  0.00000000E+00  0.00000000E+00  0.00000000E+00
  0.00000000E+00  0.00000000E+00  0.00000000E+00
  0.00000000E+00  0.00000000E+00  0.00000000E+00
