Ce12 C1 O25                             
   1.00000000000000     
     7.7074639999999999    0.0000000000000000    0.0000000000000000
    -3.8537319999999999    6.6748599999999998    0.0000000000000000
     0.0000000000000000    0.0000000000000000   28.3190309999999990
   Ce   O    C    O 
    12    24     1     1
Selective dynamics
Direct
  0.1664049386562063  0.3326668216975573  0.3869556140916590   T   T   T
  0.1663762923609696  0.8328171019000044  0.3870083336783131   T   T   T
  0.6664000020660354  0.3327931481015932  0.3870682408623675   T   T   T
  0.6664874806395666  0.8327563812493320  0.3870796565162707   T   T   T
 -0.0005285730113798 -0.0004072727208827  0.6132929776098358   T   T   T
 -0.0013446583350819  0.5002789361048257  0.6118372755203536   T   T   T
  0.4982938039449318 -0.0000700176116835  0.6118776005748557   T   T   T
  0.4985347314935389  0.5004035003918595  0.6119246974955048   T   T   T
  0.3323061325611130  0.1662680926942978  0.4995282190552098   T   T   T
  0.3325015410728943  0.6664226234193246  0.4993798618630998   T   T   T
  0.8328648151699728  0.1659656446296462  0.4996209804507187   T   T   T
  0.8328376967746404  0.6668355561121777  0.4995716031048241   T   T   T
  0.1666029111895646  0.3339774180713197  0.4705885541891535   T   T   T
  0.1663489923037496  0.8323395890613408  0.4705622708263694   T   T   T
  0.6660600827726920  0.3332548994895921  0.4703665772764820   T   T   T
  0.6652101630216134  0.8323923010392480  0.4707111608133068   T   T   T
 -0.0001198266263785 -0.0008852390937846  0.3586307453215887   T   T   T
 -0.0004533086724430  0.4994739100606862  0.3586432801917999   T   T   T
  0.4996577313756881 -0.0005794098544353  0.3587143573704142   T   T   T
  0.5000347277915376  0.4995183055240321  0.3586807428955517   T   T   T
  0.3305993939195863  0.1664899255169257  0.5839406259304304   T   T   T
  0.3318437614671320  0.6668774417682772  0.5827701227042317   T   T   T
  0.8333501051873963  0.1653350562356057  0.5839804407497391   T   T   T
  0.8324263695757077  0.6682152039853568  0.5838243953664276   T   T   T
 -0.0002982223608764 -0.0003675500662760  0.5281385707672926   T   T   T
 -0.0025459652828038  0.4989563590406586  0.5285008505684130   T   T   T
  0.4996773764454942  0.0013389309754087  0.5285505069790769   T   T   T
  0.4996670456766441  0.4993803525824985  0.5285130865070953   T   T   T
  0.3322670325498038  0.1655511121123830  0.4156311027873988   T   T   T
  0.3331512964188332  0.6665046832880328  0.4154916290201300   T   T   T
  0.8330933133255206  0.1654738830626919  0.4156303718285849   T   T   T
  0.8334813671145879  0.6671410441712200  0.4157293803029685   T   T   T
  0.1679291697510586  0.3390787657950876  0.6407589904977989   T   T   T
  0.1665112942259186  0.8318407982893194  0.6405444539490822   T   T   T
  0.6653288839798496  0.3331584236617365  0.6403923729326674   T   T   T
  0.6602087098567223  0.8310103730600195  0.6408976672490395   T   T   T
 -0.0377743019924114  0.0399262013433449  0.7135583193400418   T   T   T
  0.9184396935924076  0.0789787049116596  0.7488943628119004   T   T   T
 
  0.00000000E+00  0.00000000E+00  0.00000000E+00
  0.00000000E+00  0.00000000E+00  0.00000000E+00
  0.00000000E+00  0.00000000E+00  0.00000000E+00
  0.00000000E+00  0.00000000E+00  0.00000000E+00
  0.00000000E+00  0.00000000E+00  0.00000000E+00
  0.00000000E+00  0.00000000E+00  0.00000000E+00
  0.00000000E+00  0.00000000E+00  0.00000000E+00
  0.00000000E+00  0.00000000E+00  0.00000000E+00
  0.00000000E+00  0.00000000E+00  0.00000000E+00
  0.00000000E+00  0.00000000E+00  0.00000000E+00
  0.00000000E+00  0.00000000E+00  0.00000000E+00
  0.00000000E+00  0.00000000E+00  0.00000000E+00
  0.00000000E+00  0.00000000E+00  0.00000000E+00
  0.00000000E+00  0.00000000E+00  0.00000000E+00
  0.00000000E+00  0.00000000E+00  0.00000000E+00
  0.00000000E+00  0.00000000E+00  0.00000000E+00
  0.00000000E+00  0.00000000E+00  0.00000000E+00
  0.00000000E+00  0.00000000E+00  0.00000000E+00
  0.00000000E+00  0.00000000E+00  0.00000000E+00
  0.00000000E+00  0.00000000E+00  0.00000000E+00
  0.00000000E+00  0.00000000E+00  0.00000000E+00
  0.00000000E+00  0.00000000E+00  0.00000000E+00
  0.00000000E+00  0.00000000E+00  0.00000000E+00
  0.00000000E+00  0.00000000E+00  0.00000000E+00
  0.00000000E+00  0.00000000E+00  0.00000000E+00
  0.00000000E+00  0.00000000E+00  0.00000000E+00
  0.00000000E+00  0.00000000E+00  0.00000000E+00
  0.00000000E+00  0.00000000E+00  0.00000000E+00
  0.00000000E+00  0.00000000E+00  0.00000000E+00
  0.00000000E+00  0.00000000E+00  0.00000000E+00
  0.00000000E+00  0.00000000E+00  0.00000000E+00
  0.00000000E+00  0.00000000E+00  0.00000000E+00
  0.00000000E+00  0.00000000E+00  0.00000000E+00
  0.00000000E+00  0.00000000E+00  0.00000000E+00
  0.00000000E+00  0.00000000E+00  0.00000000E+00
  0.00000000E+00  0.00000000E+00  0.00000000E+00
  0.00000000E+00  0.00000000E+00  0.00000000E+00
  0.00000000E+00  0.00000000E+00  0.00000000E+00
