Ce12 C1 O25                             
   1.00000000000000     
     7.7074639999999999    0.0000000000000000    0.0000000000000000
    -3.8537319999999999    6.6748599999999998    0.0000000000000000
     0.0000000000000000    0.0000000000000000   28.3190309999999990
   Ce   O    C    O 
    12    24     1     1
Selective dynamics
Direct
  0.1667290218664935  0.3336520776972987  0.3863289864271195   T   T   T
  0.1667495530052293  0.8335954449173881  0.3862503092545287   T   T   T
  0.6667103220540274  0.3335554342163632  0.3862572185258001   T   T   T
  0.6667345884420188  0.8335868252037024  0.3862416470049710   T   T   T
  0.0002744490121837  0.0000645955360509  0.6110324481848357   T   T   T
  0.0000922202571662  0.5003003674438830  0.6112804087788494   T   T   T
  0.5003365517035673  0.0003467801847882  0.6113746785819313   T   T   T
  0.5004960357365495  0.5002882585353675  0.6111940762040530   T   T   T
  0.3336543525752635  0.1668162308553743  0.4987533719766146   T   T   T
  0.3336461150716071  0.6670987760610239  0.4988271436388235   T   T   T
  0.8333260209221530  0.1668054239549440  0.4987739121799747   T   T   T
  0.8334385495758757  0.6665805249222861  0.4986651254497717   T   T   T
  0.1668601487375165  0.3335577875661039  0.4700335430031077   T   T   T
  0.1672887455800806  0.8336427683766374  0.4698871933041052   T   T   T
  0.6665795237935213  0.3330951012389752  0.4697866384860350   T   T   T
  0.6665100184735313  0.8335978093589632  0.4698824990102267   T   T   T
 -0.0000493024696234  0.0002295615320171  0.3581029245380656   T   T   T
  0.0002347901437876  0.5003441495273195  0.3579827745840505   T   T   T
  0.5000289528144517  0.0000838322184605  0.3578855710167994   T   T   T
  0.4999871251950527  0.5004522959250722  0.3580054905335429   T   T   T
  0.3334752375775505  0.1667224143671372  0.5825376916629795   T   T   T
  0.3337504152910000  0.6671928335303519  0.5825579467141325   T   T   T
  0.8336017051454079  0.1669162436449874  0.5826455901895503   T   T   T
  0.8336348865732790  0.6667501012862046  0.5825692793405159   T   T   T
  0.0000380701952024  0.0000246237150386  0.5275511770878107   T   T   T
 -0.0000557291197903  0.5000196980846042  0.5275959674823366   T   T   T
  0.5005279493574312  0.0006507113753166  0.5276728487803065   T   T   T
  0.5003426340834929  0.5001127908289638  0.5275726827043068   T   T   T
  0.3334562263671855  0.1670449384228212  0.4149063442769442   T   T   T
  0.3332828781714711  0.6667613525700994  0.4148892752161038   T   T   T
  0.8335138288268599  0.1671276755279791  0.4149389501101435   T   T   T
  0.8333925377671618  0.6666455889832571  0.4149199140965422   T   T   T
  0.1675196595384470  0.3335089255340686  0.6394863269546865   T   T   T
  0.1667818354268227  0.8333198056042548  0.6393868307559932   T   T   T
  0.6665573913584887  0.3335130709119798  0.6394677602958235   T   T   T
  0.6675059838164173  0.8333330125107703  0.6395524386203307   T   T   T
  0.0211035342670379  0.1426483967352549  0.7440542541222250   T   T   T
  0.1201111728660796  0.0722357710948915  0.7489387609060646   T   T   T
 
  0.00000000E+00  0.00000000E+00  0.00000000E+00
  0.00000000E+00  0.00000000E+00  0.00000000E+00
  0.00000000E+00  0.00000000E+00  0.00000000E+00
  0.00000000E+00  0.00000000E+00  0.00000000E+00
  0.00000000E+00  0.00000000E+00  0.00000000E+00
  0.00000000E+00  0.00000000E+00  0.00000000E+00
  0.00000000E+00  0.00000000E+00  0.00000000E+00
  0.00000000E+00  0.00000000E+00  0.00000000E+00
  0.00000000E+00  0.00000000E+00  0.00000000E+00
  0.00000000E+00  0.00000000E+00  0.00000000E+00
  0.00000000E+00  0.00000000E+00  0.00000000E+00
  0.00000000E+00  0.00000000E+00  0.00000000E+00
  0.00000000E+00  0.00000000E+00  0.00000000E+00
  0.00000000E+00  0.00000000E+00  0.00000000E+00
  0.00000000E+00  0.00000000E+00  0.00000000E+00
  0.00000000E+00  0.00000000E+00  0.00000000E+00
  0.00000000E+00  0.00000000E+00  0.00000000E+00
  0.00000000E+00  0.00000000E+00  0.00000000E+00
  0.00000000E+00  0.00000000E+00  0.00000000E+00
  0.00000000E+00  0.00000000E+00  0.00000000E+00
  0.00000000E+00  0.00000000E+00  0.00000000E+00
  0.00000000E+00  0.00000000E+00  0.00000000E+00
  0.00000000E+00  0.00000000E+00  0.00000000E+00
  0.00000000E+00  0.00000000E+00  0.00000000E+00
  0.00000000E+00  0.00000000E+00  0.00000000E+00
  0.00000000E+00  0.00000000E+00  0.00000000E+00
  0.00000000E+00  0.00000000E+00  0.00000000E+00
  0.00000000E+00  0.00000000E+00  0.00000000E+00
  0.00000000E+00  0.00000000E+00  0.00000000E+00
  0.00000000E+00  0.00000000E+00  0.00000000E+00
  0.00000000E+00  0.00000000E+00  0.00000000E+00
  0.00000000E+00  0.00000000E+00  0.00000000E+00
  0.00000000E+00  0.00000000E+00  0.00000000E+00
  0.00000000E+00  0.00000000E+00  0.00000000E+00
  0.00000000E+00  0.00000000E+00  0.00000000E+00
  0.00000000E+00  0.00000000E+00  0.00000000E+00
  0.00000000E+00  0.00000000E+00  0.00000000E+00
  0.00000000E+00  0.00000000E+00  0.00000000E+00
