Ce12 C1 O25                             
   1.00000000000000     
     7.7074639999999999    0.0000000000000000    0.0000000000000000
    -3.8537319999999999    6.6748599999999998    0.0000000000000000
     0.0000000000000000    0.0000000000000000   28.3190309999999990
   Ce   O    C    O 
    12    24     1     1
Selective dynamics
Direct
  0.1671533707564370  0.3331103944565174  0.3867547071215842   T   T   T
  0.1672615661254257  0.8331866150125029  0.3866497864968010   T   T   T
  0.6671669111346906  0.3330568001489232  0.3866862533191253   T   T   T
  0.6671345460513493  0.8332466552329908  0.3866647376768947   T   T   T
  0.0010095817784751  0.0000056679447767  0.6116507422066626   T   T   T
  0.0011014943184200  0.5010093358659352  0.6112837097636498   T   T   T
  0.5013489798327432  0.0003004146189284  0.6116044254655714   T   T   T
  0.5016252935811280  0.5004339656930666  0.6113939267573989   T   T   T
  0.3341882315662353  0.1666166044643545  0.4992034288088648   T   T   T
  0.3342761393674677  0.6669969780677478  0.4991465460464382   T   T   T
  0.8340157986330710  0.1666821313439411  0.4992123899539300   T   T   T
  0.8340433906299015  0.6669028067683521  0.4990222112268814   T   T   T
  0.1673212927849471  0.3335171212603105  0.4704018666845639   T   T   T
  0.1677241979112268  0.8333582053788491  0.4702589126256236   T   T   T
  0.6674347534907396  0.3331352837254634  0.4702372264435926   T   T   T
  0.6670765664041408  0.8335202928455607  0.4702476752463239   T   T   T
  0.0005793844475994 -0.0001268659685486  0.3583647430760045   T   T   T
  0.0004288825209827  0.4996144582152330  0.3584153624934033   T   T   T
  0.5005849388538923 -0.0001014870600311  0.3582956587633084   T   T   T
  0.5004726667383576  0.4995809256203186  0.3584084532718237   T   T   T
  0.3347685149128260  0.1665061026430886  0.5828399038886080   T   T   T
  0.3343734634747025  0.6672732045408861  0.5827627710625043   T   T   T
  0.8345559688214096  0.1670555801523241  0.5829867748147879   T   T   T
  0.8344771114976345  0.6670707485501756  0.5830275617358792   T   T   T
  0.0004515425181518 -0.0002418645823925  0.5280324058131073   T   T   T
  0.0005543373897125  0.5003393806179020  0.5279642190901808   T   T   T
  0.5013191234152248  0.0003865499504421  0.5280132197013213   T   T   T
  0.5013273153629972  0.5003782988484967  0.5279623523824667   T   T   T
  0.3337925030814324  0.1665096518606410  0.4152894303581985   T   T   T
  0.3339159522215192  0.6664165560341007  0.4152470396852367   T   T   T
  0.8340226802327561  0.1664480398894410  0.4153408881222531   T   T   T
  0.8338836169542054  0.6666945069355965  0.4153191504860133   T   T   T
  0.1693189949202492  0.3338911905741403  0.6392810900329196   T   T   T
  0.1677759607280147  0.8337597752071827  0.6397303666814875   T   T   T
  0.6684112603624138  0.3339001260160807  0.6399672030532718   T   T   T
  0.6669278482758997  0.8331538803365035  0.6397192793927360   T   T   T
  0.0039092382414661  0.2795933044229678  0.7367279346496070   T   T   T
  0.0498115806621570  0.4434646643672259  0.7436756456009765   T   T   T
 
  0.00000000E+00  0.00000000E+00  0.00000000E+00
  0.00000000E+00  0.00000000E+00  0.00000000E+00
  0.00000000E+00  0.00000000E+00  0.00000000E+00
  0.00000000E+00  0.00000000E+00  0.00000000E+00
  0.00000000E+00  0.00000000E+00  0.00000000E+00
  0.00000000E+00  0.00000000E+00  0.00000000E+00
  0.00000000E+00  0.00000000E+00  0.00000000E+00
  0.00000000E+00  0.00000000E+00  0.00000000E+00
  0.00000000E+00  0.00000000E+00  0.00000000E+00
  0.00000000E+00  0.00000000E+00  0.00000000E+00
  0.00000000E+00  0.00000000E+00  0.00000000E+00
  0.00000000E+00  0.00000000E+00  0.00000000E+00
  0.00000000E+00  0.00000000E+00  0.00000000E+00
  0.00000000E+00  0.00000000E+00  0.00000000E+00
  0.00000000E+00  0.00000000E+00  0.00000000E+00
  0.00000000E+00  0.00000000E+00  0.00000000E+00
  0.00000000E+00  0.00000000E+00  0.00000000E+00
  0.00000000E+00  0.00000000E+00  0.00000000E+00
  0.00000000E+00  0.00000000E+00  0.00000000E+00
  0.00000000E+00  0.00000000E+00  0.00000000E+00
  0.00000000E+00  0.00000000E+00  0.00000000E+00
  0.00000000E+00  0.00000000E+00  0.00000000E+00
  0.00000000E+00  0.00000000E+00  0.00000000E+00
  0.00000000E+00  0.00000000E+00  0.00000000E+00
  0.00000000E+00  0.00000000E+00  0.00000000E+00
  0.00000000E+00  0.00000000E+00  0.00000000E+00
  0.00000000E+00  0.00000000E+00  0.00000000E+00
  0.00000000E+00  0.00000000E+00  0.00000000E+00
  0.00000000E+00  0.00000000E+00  0.00000000E+00
  0.00000000E+00  0.00000000E+00  0.00000000E+00
  0.00000000E+00  0.00000000E+00  0.00000000E+00
  0.00000000E+00  0.00000000E+00  0.00000000E+00
  0.00000000E+00  0.00000000E+00  0.00000000E+00
  0.00000000E+00  0.00000000E+00  0.00000000E+00
  0.00000000E+00  0.00000000E+00  0.00000000E+00
  0.00000000E+00  0.00000000E+00  0.00000000E+00
  0.00000000E+00  0.00000000E+00  0.00000000E+00
  0.00000000E+00  0.00000000E+00  0.00000000E+00
