Ce12 C1 O25                             
   1.00000000000000     
     7.7074639999999999    0.0000000000000000    0.0000000000000000
    -3.8537319999999999    6.6748599999999998    0.0000000000000000
     0.0000000000000000    0.0000000000000000   28.3190309999999990
   Ce   O    C    O 
    12    24     1     1
Selective dynamics
Direct
  0.1673416628303506  0.3331337381761318  0.3869987587913864   T   T   T
  0.1674203485822088  0.8331262266156600  0.3869744680239994   T   T   T
  0.6674053605786546  0.3330812197495057  0.3869897441257280   T   T   T
  0.6673622171368576  0.8331873006706116  0.3870240805895481   T   T   T
  0.0012968437217984 -0.0007375210901135  0.6118300708311879   T   T   T
  0.0011422539567465  0.4992261115625493  0.6121227108127857   T   T   T
  0.5010615872219049 -0.0007234357910802  0.6118919665816032   T   T   T
  0.5012470704041845  0.4992566227685069  0.6118199774919396   T   T   T
  0.3343012092358012  0.1662379682473810  0.4994087877448951   T   T   T
  0.3342321963462894  0.6662071737993670  0.4994693557032497   T   T   T
  0.8343672173621197  0.1663685138161212  0.4994753684171517   T   T   T
  0.8343962558263661  0.6662167683428748  0.4994635706451697   T   T   T
  0.1677176779606203  0.3330433283778753  0.4705752691705682   T   T   T
  0.1676670928515158  0.8330328943657845  0.4706248978219488   T   T   T
  0.6674957983903974  0.3329557040354428  0.4705948935090877   T   T   T
  0.6674717706855963  0.8329202849248573  0.4705714654179184   T   T   T
  0.0005920336817726 -0.0001090084120794  0.3587270601151850   T   T   T
  0.0006686615271430  0.4996909533998151  0.3586756492778809   T   T   T
  0.5007832643041440 -0.0001785040907914  0.3586777989199966   T   T   T
  0.5006581692721114  0.4998723664160130  0.3587601905090080   T   T   T
  0.3339742157459385  0.1655174476339429  0.5831017102904279   T   T   T
  0.3340858643072661  0.6658702468504615  0.5833367979070418   T   T   T
  0.8349105435684590  0.1664139428362363  0.5834140495705411   T   T   T
  0.8351062890689186  0.6662442738089921  0.5833813883944288   T   T   T
  0.0006781056260967 -0.0005659426600568  0.5283129236363046   T   T   T
  0.0009946894250138  0.4994007485464587  0.5284231623371721   T   T   T
  0.5012750956429715 -0.0005006850993830  0.5284028289098807   T   T   T
  0.5013166702245775  0.4997666649479584  0.5283809155173398   T   T   T
  0.3340795136998669  0.1662919850726182  0.4155980008739038   T   T   T
  0.3339622893598549  0.6665457182090022  0.4156378183773717   T   T   T
  0.8340210966622453  0.1664933247963534  0.4156773629134330   T   T   T
  0.8342281118980136  0.6664501839442520  0.4156513525739111   T   T   T
  0.1690877514059526  0.3323745714293631  0.6401048506174475   T   T   T
  0.1681913182021147  0.8327859550935514  0.6403877134905135   T   T   T
  0.6665872366723535  0.3322526944115531  0.6399717986654749   T   T   T
  0.6678502850735346  0.8328617476293303  0.6402682808857314   T   T   T
  0.0072794626068753  0.3265008995762692  0.7715499184463958   T   T   T
 -0.0422572310666341  0.3561535170886697  0.7358390420924399   T   T   T
 
  0.00000000E+00  0.00000000E+00  0.00000000E+00
  0.00000000E+00  0.00000000E+00  0.00000000E+00
  0.00000000E+00  0.00000000E+00  0.00000000E+00
  0.00000000E+00  0.00000000E+00  0.00000000E+00
  0.00000000E+00  0.00000000E+00  0.00000000E+00
  0.00000000E+00  0.00000000E+00  0.00000000E+00
  0.00000000E+00  0.00000000E+00  0.00000000E+00
  0.00000000E+00  0.00000000E+00  0.00000000E+00
  0.00000000E+00  0.00000000E+00  0.00000000E+00
  0.00000000E+00  0.00000000E+00  0.00000000E+00
  0.00000000E+00  0.00000000E+00  0.00000000E+00
  0.00000000E+00  0.00000000E+00  0.00000000E+00
  0.00000000E+00  0.00000000E+00  0.00000000E+00
  0.00000000E+00  0.00000000E+00  0.00000000E+00
  0.00000000E+00  0.00000000E+00  0.00000000E+00
  0.00000000E+00  0.00000000E+00  0.00000000E+00
  0.00000000E+00  0.00000000E+00  0.00000000E+00
  0.00000000E+00  0.00000000E+00  0.00000000E+00
  0.00000000E+00  0.00000000E+00  0.00000000E+00
  0.00000000E+00  0.00000000E+00  0.00000000E+00
  0.00000000E+00  0.00000000E+00  0.00000000E+00
  0.00000000E+00  0.00000000E+00  0.00000000E+00
  0.00000000E+00  0.00000000E+00  0.00000000E+00
  0.00000000E+00  0.00000000E+00  0.00000000E+00
  0.00000000E+00  0.00000000E+00  0.00000000E+00
  0.00000000E+00  0.00000000E+00  0.00000000E+00
  0.00000000E+00  0.00000000E+00  0.00000000E+00
  0.00000000E+00  0.00000000E+00  0.00000000E+00
  0.00000000E+00  0.00000000E+00  0.00000000E+00
  0.00000000E+00  0.00000000E+00  0.00000000E+00
  0.00000000E+00  0.00000000E+00  0.00000000E+00
  0.00000000E+00  0.00000000E+00  0.00000000E+00
  0.00000000E+00  0.00000000E+00  0.00000000E+00
  0.00000000E+00  0.00000000E+00  0.00000000E+00
  0.00000000E+00  0.00000000E+00  0.00000000E+00
  0.00000000E+00  0.00000000E+00  0.00000000E+00
  0.00000000E+00  0.00000000E+00  0.00000000E+00
  0.00000000E+00  0.00000000E+00  0.00000000E+00
