Ce12 C1 O25                             
   1.00000000000000     
     7.7074639999999999    0.0000000000000000    0.0000000000000000
    -3.8537319999999999    6.6748599999999998    0.0000000000000000
     0.0000000000000000    0.0000000000000000   28.3190309999999990
   Ce   O    C    O 
    12    24     1     1
Selective dynamics
Direct
  0.1677566091599309  0.3366081048720462  0.3869740698978356   T   T   T
  0.1677249373453401  0.8368344911717455  0.3870278504370641   T   T   T
  0.6678067744318795  0.3367583798197953  0.3872009361905335   T   T   T
  0.6679716537458003  0.8368201313173526  0.3870126169026951   T   T   T
  0.0011032015941273  0.0034769062865397  0.6132894900378579   T   T   T
  0.0014332564551749  0.5048036960280738  0.6117086363301877   T   T   T
  0.5010678378980359  0.0039145818548266  0.6117573192771320   T   T   T
  0.5015194434266476  0.5047278424602525  0.6117705553712168   T   T   T
  0.3339649150664931  0.1701805809064434  0.4996267972297613   T   T   T
  0.3345364980309452  0.6703348795358823  0.4993556637488587   T   T   T
  0.8349409472884631  0.1701107296905132  0.4996315962222530   T   T   T
  0.8347945139094817  0.6709579928458500  0.4995607860156411   T   T   T
  0.1681171206754491  0.3375880203846394  0.4706827723927338   T   T   T
  0.1684624646900447  0.8368185855940924  0.4706148291372795   T   T   T
  0.6677554305362166  0.3366906954008968  0.4705368761382903   T   T   T
  0.6671300986925156  0.8368852031084926  0.4706363322750095   T   T   T
  0.0011264298693071  0.0032768273785694  0.3585591948415324   T   T   T
  0.0006487370010121  0.5034145142262914  0.3588168124605308   T   T   T
  0.5012763676682813  0.0038107003842907  0.3589242186641067   T   T   T
  0.5015624630730036  0.5033211360809897  0.3587701692672535   T   T   T
  0.3324937779523726  0.1705614358608475  0.5837719257050974   T   T   T
  0.3343944299471795  0.6704246882751589  0.5826755089342968   T   T   T
  0.8364931763911927  0.1702016359082290  0.5837510649601140   T   T   T
  0.8351490536689777  0.6723583710331926  0.5836998223837190   T   T   T
  0.0012270374078481  0.0035799230352170  0.5282357280374690   T   T   T
  0.0000658080017399  0.5034650804970452  0.5284140669938677   T   T   T
  0.5017634096752286  0.0049826997590871  0.5285893611911054   T   T   T
  0.5019086770238059  0.5034663223603167  0.5284090344848306   T   T   T
  0.3337452651744639  0.1700407775369339  0.4157560290048405   T   T   T
  0.3344801034390051  0.6699479063320170  0.4155054153135573   T   T   T
  0.8350975763103063  0.1699537478158702  0.4157431948103076   T   T   T
  0.8347652972745284  0.6708717347194167  0.4158379505374898   T   T   T
  0.1710223675033067  0.3439325728923500  0.6408506669617690   T   T   T
  0.1693990514665537  0.8361753493084615  0.6401970793524557   T   T   T
  0.6679391414359315  0.3370841336727918  0.6401370963255268   T   T   T
  0.6640527500043134  0.8358754164762129  0.6403070652932816   T   T   T
  0.0153835547774889  0.0881498136008649  0.7140809518137807   T   T   T
  0.0254648219876137  0.1649063915684041  0.7493705150587122   T   T   T
 
  0.00000000E+00  0.00000000E+00  0.00000000E+00
  0.00000000E+00  0.00000000E+00  0.00000000E+00
  0.00000000E+00  0.00000000E+00  0.00000000E+00
  0.00000000E+00  0.00000000E+00  0.00000000E+00
  0.00000000E+00  0.00000000E+00  0.00000000E+00
  0.00000000E+00  0.00000000E+00  0.00000000E+00
  0.00000000E+00  0.00000000E+00  0.00000000E+00
  0.00000000E+00  0.00000000E+00  0.00000000E+00
  0.00000000E+00  0.00000000E+00  0.00000000E+00
  0.00000000E+00  0.00000000E+00  0.00000000E+00
  0.00000000E+00  0.00000000E+00  0.00000000E+00
  0.00000000E+00  0.00000000E+00  0.00000000E+00
  0.00000000E+00  0.00000000E+00  0.00000000E+00
  0.00000000E+00  0.00000000E+00  0.00000000E+00
  0.00000000E+00  0.00000000E+00  0.00000000E+00
  0.00000000E+00  0.00000000E+00  0.00000000E+00
  0.00000000E+00  0.00000000E+00  0.00000000E+00
  0.00000000E+00  0.00000000E+00  0.00000000E+00
  0.00000000E+00  0.00000000E+00  0.00000000E+00
  0.00000000E+00  0.00000000E+00  0.00000000E+00
  0.00000000E+00  0.00000000E+00  0.00000000E+00
  0.00000000E+00  0.00000000E+00  0.00000000E+00
  0.00000000E+00  0.00000000E+00  0.00000000E+00
  0.00000000E+00  0.00000000E+00  0.00000000E+00
  0.00000000E+00  0.00000000E+00  0.00000000E+00
  0.00000000E+00  0.00000000E+00  0.00000000E+00
  0.00000000E+00  0.00000000E+00  0.00000000E+00
  0.00000000E+00  0.00000000E+00  0.00000000E+00
  0.00000000E+00  0.00000000E+00  0.00000000E+00
  0.00000000E+00  0.00000000E+00  0.00000000E+00
  0.00000000E+00  0.00000000E+00  0.00000000E+00
  0.00000000E+00  0.00000000E+00  0.00000000E+00
  0.00000000E+00  0.00000000E+00  0.00000000E+00
  0.00000000E+00  0.00000000E+00  0.00000000E+00
  0.00000000E+00  0.00000000E+00  0.00000000E+00
  0.00000000E+00  0.00000000E+00  0.00000000E+00
  0.00000000E+00  0.00000000E+00  0.00000000E+00
  0.00000000E+00  0.00000000E+00  0.00000000E+00
