Ce12 C1 O25                             
   1.00000000000000     
     7.7074639999999999    0.0000000000000000    0.0000000000000000
    -3.8537319999999999    6.6748599999999998    0.0000000000000000
     0.0000000000000000    0.0000000000000000   28.3190309999999990
   Ce   O    C    O 
    12    24     1     1
Selective dynamics
Direct
  0.1665675205895785  0.3331340411791667  0.3868286892973447   T   T   T
  0.1666602260265162  0.8333444999409547  0.3867062933483063   T   T   T
  0.6665570367534924  0.3331130735069959  0.3868396131352231   T   T   T
  0.6666852739144276  0.8333444999409547  0.3867062933483063   T   T   T
  0.0008012551300671  0.0016025102601342  0.6131113249946607   T   T   T
  0.0013961452708079  0.5027722617745103  0.6116764600570465   T   T   T
  0.5010506601656535  0.0021013203313079  0.6117823238284777   T   T   T
  0.5013761165037022  0.5027722617745103  0.6116764600570465   T   T   T
  0.3332734525460254  0.1672748353600991  0.4994630575628801   T   T   T
  0.3338651882121126  0.6677313764242157  0.4992169957979364   T   T   T
  0.8340003828140831  0.1672748353600991  0.4994630575628801   T   T   T
  0.8340222656353783  0.6680455312707467  0.4992878238935780   T   T   T
  0.1673831619549182  0.3347653239098460  0.4704677533419508   T   T   T
  0.1673101016908376  0.8335528308835968  0.4704110031166170   T   T   T
  0.6670105896825141  0.3340201793650355  0.4702515240916670   T   T   T
  0.6662437291927494  0.8335528308835968  0.4704110031166170   T   T   T
  0.0000043155132480  0.0000086310264961  0.3583338913312832   T   T   T
 -0.0003830190507592  0.4994814127360001  0.3585545483509696   T   T   T
  0.5000936985437475  0.0001873970874953  0.3583556977994131   T   T   T
  0.4998644317867583  0.4994814127360001  0.3585545483509696   T   T   T
  0.3322619028495004  0.1676626145790658  0.5836637605578719   T   T   T
  0.3347230721128884  0.6694471442257671  0.5825218282744452   T   T   T
  0.8353997117295755  0.1676626145790658  0.5836637605578719   T   T   T
  0.8351953952873470  0.6703917905746848  0.5836195693314110   T   T   T
  0.0004486873988489  0.0008973747976977  0.5280615236670423   T   T   T
 -0.0006009598631404  0.5006966150523527  0.5283598758477033   T   T   T
  0.5013771380213402  0.0027542760426818  0.5283541815378516   T   T   T
  0.5012975749154933  0.5006966150523527  0.5283598758477033   T   T   T
  0.3328488583082493  0.1663390673437730  0.4155215012925621   T   T   T
  0.3334544262792642  0.6669098525585189  0.4152945792586095   T   T   T
  0.8334892090355331  0.1663390673437730  0.4155215012925621   T   T   T
  0.8336799964699694  0.6673609929399291  0.4154811859026216   T   T   T
  0.1706125497392864  0.3412240994785825  0.6404738148982838   T   T   T
  0.1695727025882431  0.8338058566478852  0.6404750901557381   T   T   T
  0.6677437914663633  0.3354865829327376  0.6402461829581860   T   T   T
  0.6642341540596325  0.8338058566478852  0.6404750901557381   T   T   T
  0.0228110455438067  0.0456220910876135  0.7151931310005395   T   T   T
  0.0432132111819396  0.0864264223638720  0.7544051850800819   T   T   T
 
  0.00000000E+00  0.00000000E+00  0.00000000E+00
  0.00000000E+00  0.00000000E+00  0.00000000E+00
  0.00000000E+00  0.00000000E+00  0.00000000E+00
  0.00000000E+00  0.00000000E+00  0.00000000E+00
  0.00000000E+00  0.00000000E+00  0.00000000E+00
  0.00000000E+00  0.00000000E+00  0.00000000E+00
  0.00000000E+00  0.00000000E+00  0.00000000E+00
  0.00000000E+00  0.00000000E+00  0.00000000E+00
  0.00000000E+00  0.00000000E+00  0.00000000E+00
  0.00000000E+00  0.00000000E+00  0.00000000E+00
  0.00000000E+00  0.00000000E+00  0.00000000E+00
  0.00000000E+00  0.00000000E+00  0.00000000E+00
  0.00000000E+00  0.00000000E+00  0.00000000E+00
  0.00000000E+00  0.00000000E+00  0.00000000E+00
  0.00000000E+00  0.00000000E+00  0.00000000E+00
  0.00000000E+00  0.00000000E+00  0.00000000E+00
  0.00000000E+00  0.00000000E+00  0.00000000E+00
  0.00000000E+00  0.00000000E+00  0.00000000E+00
  0.00000000E+00  0.00000000E+00  0.00000000E+00
  0.00000000E+00  0.00000000E+00  0.00000000E+00
  0.00000000E+00  0.00000000E+00  0.00000000E+00
  0.00000000E+00  0.00000000E+00  0.00000000E+00
  0.00000000E+00  0.00000000E+00  0.00000000E+00
  0.00000000E+00  0.00000000E+00  0.00000000E+00
  0.00000000E+00  0.00000000E+00  0.00000000E+00
  0.00000000E+00  0.00000000E+00  0.00000000E+00
  0.00000000E+00  0.00000000E+00  0.00000000E+00
  0.00000000E+00  0.00000000E+00  0.00000000E+00
  0.00000000E+00  0.00000000E+00  0.00000000E+00
  0.00000000E+00  0.00000000E+00  0.00000000E+00
  0.00000000E+00  0.00000000E+00  0.00000000E+00
  0.00000000E+00  0.00000000E+00  0.00000000E+00
  0.00000000E+00  0.00000000E+00  0.00000000E+00
  0.00000000E+00  0.00000000E+00  0.00000000E+00
  0.00000000E+00  0.00000000E+00  0.00000000E+00
  0.00000000E+00  0.00000000E+00  0.00000000E+00
  0.00000000E+00  0.00000000E+00  0.00000000E+00
  0.00000000E+00  0.00000000E+00  0.00000000E+00
