Ce12 C1 O25                             
   1.00000000000000     
     7.7074639999999999    0.0000000000000000    0.0000000000000000
    -3.8537319999999999    6.6748599999999998    0.0000000000000000
     0.0000000000000000    0.0000000000000000   28.3190309999999990
   Ce   O    C    O 
    12    24     1     1
Selective dynamics
Direct
  0.1670495095064757  0.3334981568753184  0.3867619469287785   T   T   T
  0.1670896042623251  0.8334845817835528  0.3867597798485550   T   T   T
  0.6670516074732219  0.3334595908392086  0.3867802025148641   T   T   T
  0.6670384809175220  0.8334997355912331  0.3867589130117081   T   T   T
  0.0010053593181379  0.0005203669207950  0.6117207598737278   T   T   T
  0.0011676953792662  0.5011818451749771  0.6114425814983262   T   T   T
  0.5010853236941559  0.0006443426216984  0.6116740678246868   T   T   T
  0.5012350809489853  0.5005976457193366  0.6115940856343338   T   T   T
  0.3340295053921973  0.1669839256905480  0.4992245246643874   T   T   T
  0.3341982140452925  0.6671245235508850  0.4991894216892970   T   T   T
  0.8340136810367726  0.1669399597457731  0.4992291570519292   T   T   T
  0.8340517807849863  0.6670675454851237  0.4991645274076798   T   T   T
  0.1673181933149698  0.3335510388767522  0.4703605768208803   T   T   T
  0.1673462405390068  0.8337467604006935  0.4703358535905166   T   T   T
  0.6672510589854010  0.3335929297130536  0.4703588771280362   T   T   T
  0.6673146582623395  0.8336673970203954  0.4703389694641876   T   T   T
  0.0003104284844512  0.0001920974020286  0.3585396837276240   T   T   T
  0.0004522517072505  0.5001005522878802  0.3585042207821476   T   T   T
  0.5003698808892173  0.0000744895353209  0.3584991608195543   T   T   T
  0.5002972064941782  0.5001946334858433  0.3585428463412329   T   T   T
  0.3345297738177914  0.1674621341324780  0.5829562311539427   T   T   T
  0.3341815348188061  0.6670695775819165  0.5829402594897632   T   T   T
  0.8346220632915776  0.1675230169577466  0.5830477847234217   T   T   T
  0.8343229447519444  0.6669926311402864  0.5829588796232742   T   T   T
  0.0006544070626362  0.0003109901933323  0.5281757823996400   T   T   T
  0.0008303920329035  0.5004711737862079  0.5280877308047026   T   T   T
  0.5009569052197453  0.0004411643610844  0.5281583447309584   T   T   T
  0.5009188257123424  0.5005149243611707  0.5280901617454656   T   T   T
  0.3338647270544571  0.1668060445629054  0.4154259370393528   T   T   T
  0.3337576393997648  0.6669162294461864  0.4154421994462191   T   T   T
  0.8336794217596738  0.1668716240796153  0.4154556670695168   T   T   T
  0.8337954194102944  0.6667936261293754  0.4154268329751852   T   T   T
  0.1684381055294422  0.3340476544070362  0.6398561407331360   T   T   T
  0.1679363076084203  0.8344882520546060  0.6396115067991311   T   T   T
  0.6679248052504549  0.3338839869759834  0.6399452966420395   T   T   T
  0.6674368843286442  0.8335897454543680  0.6397356583614134   T   T   T
 -0.0015839325225509  0.3270087683633133  0.7387032024938025   T   T   T
  0.0596030140375010  0.4964423372919738  0.7379922271465817   T   T   T
 
  0.00000000E+00  0.00000000E+00  0.00000000E+00
  0.00000000E+00  0.00000000E+00  0.00000000E+00
  0.00000000E+00  0.00000000E+00  0.00000000E+00
  0.00000000E+00  0.00000000E+00  0.00000000E+00
  0.00000000E+00  0.00000000E+00  0.00000000E+00
  0.00000000E+00  0.00000000E+00  0.00000000E+00
  0.00000000E+00  0.00000000E+00  0.00000000E+00
  0.00000000E+00  0.00000000E+00  0.00000000E+00
  0.00000000E+00  0.00000000E+00  0.00000000E+00
  0.00000000E+00  0.00000000E+00  0.00000000E+00
  0.00000000E+00  0.00000000E+00  0.00000000E+00
  0.00000000E+00  0.00000000E+00  0.00000000E+00
  0.00000000E+00  0.00000000E+00  0.00000000E+00
  0.00000000E+00  0.00000000E+00  0.00000000E+00
  0.00000000E+00  0.00000000E+00  0.00000000E+00
  0.00000000E+00  0.00000000E+00  0.00000000E+00
  0.00000000E+00  0.00000000E+00  0.00000000E+00
  0.00000000E+00  0.00000000E+00  0.00000000E+00
  0.00000000E+00  0.00000000E+00  0.00000000E+00
  0.00000000E+00  0.00000000E+00  0.00000000E+00
  0.00000000E+00  0.00000000E+00  0.00000000E+00
  0.00000000E+00  0.00000000E+00  0.00000000E+00
  0.00000000E+00  0.00000000E+00  0.00000000E+00
  0.00000000E+00  0.00000000E+00  0.00000000E+00
  0.00000000E+00  0.00000000E+00  0.00000000E+00
  0.00000000E+00  0.00000000E+00  0.00000000E+00
  0.00000000E+00  0.00000000E+00  0.00000000E+00
  0.00000000E+00  0.00000000E+00  0.00000000E+00
  0.00000000E+00  0.00000000E+00  0.00000000E+00
  0.00000000E+00  0.00000000E+00  0.00000000E+00
  0.00000000E+00  0.00000000E+00  0.00000000E+00
  0.00000000E+00  0.00000000E+00  0.00000000E+00
  0.00000000E+00  0.00000000E+00  0.00000000E+00
  0.00000000E+00  0.00000000E+00  0.00000000E+00
  0.00000000E+00  0.00000000E+00  0.00000000E+00
  0.00000000E+00  0.00000000E+00  0.00000000E+00
  0.00000000E+00  0.00000000E+00  0.00000000E+00
  0.00000000E+00  0.00000000E+00  0.00000000E+00
