Ce12 C1 O25                             
   1.00000000000000     
     7.7074639999999999    0.0000000000000000    0.0000000000000000
    -3.8537319999999999    6.6748599999999998    0.0000000000000000
     0.0000000000000000    0.0000000000000000   28.3190309999999990
   Ce   O    C    O 
    12    24     1     1
Selective dynamics
Direct
  0.1693388946251655  0.3420893322282559  0.3867090662176967   T   T   T
  0.1693686689784694  0.8422555591819487  0.3867230555125356   T   T   T
  0.6695045419590530  0.3422727514781116  0.3868953149216235   T   T   T
  0.6695992518788680  0.8422911830407925  0.3867104080961606   T   T   T
  0.0025737873641786  0.0084453068622167  0.6132709305303147   T   T   T
  0.0029286665035508  0.5093644479728663  0.6116054619060622   T   T   T
  0.5022149909997700  0.0085533636872266  0.6116919893670170   T   T   T
  0.5023793350212296  0.5091971559989426  0.6116798718627284   T   T   T
  0.3353224890019305  0.1751797991635060  0.4994048329049403   T   T   T
  0.3359825969764973  0.6754792209188538  0.4991481977248268   T   T   T
  0.8364072507211271  0.1751252829290528  0.4994169978176345   T   T   T
  0.8363052467438106  0.6760821793690465  0.4993611521880855   T   T   T
  0.1695643280944956  0.3426436978337610  0.4704592778697367   T   T   T
  0.1699459449923968  0.8419351313877107  0.4703771985314159   T   T   T
  0.6692749246633980  0.3418573722296559  0.4702834465424907   T   T   T
  0.6686700762197190  0.8420129137396077  0.4703922285693422   T   T   T
  0.0027025788598593  0.0087217696563744  0.3582545562191845   T   T   T
  0.0023597333496918  0.5087777036038996  0.3584663092764789   T   T   T
  0.5029186644616039  0.0091679474086132  0.3585340139131151   T   T   T
  0.5030517011349317  0.5087739500727254  0.3584434333744033   T   T   T
  0.3337091372153915  0.1750879427120331  0.5836545569580678   T   T   T
  0.3357150852200823  0.6753052315579118  0.5825388552859774   T   T   T
  0.8376145064235411  0.1746538335058635  0.5836213769280225   T   T   T
  0.8365173122216591  0.6771186346013663  0.5836201897232440   T   T   T
  0.0026190630292725  0.0083746603184046  0.5280787008364405   T   T   T
  0.0013934171038783  0.5082625151545774  0.5282582286604186   T   T   T
  0.5032533630762392  0.0100631651685775  0.5283917995876966   T   T   T
  0.5032836986641558  0.5082561432025055  0.5282359480187349   T   T   T
  0.3354082663650073  0.1754012493595452  0.4154663370860900   T   T   T
  0.3360553501474182  0.6752914214417424  0.4152476402244868   T   T   T
  0.8365989990898345  0.1752922990745153  0.4154693520601976   T   T   T
  0.8363457578294051  0.6761457602924550  0.4155103582534863   T   T   T
  0.1718432248094040  0.3477818544147622  0.6407482124445089   T   T   T
  0.1708867599355122  0.8409224556358506  0.6402713296626715   T   T   T
  0.6691212814952964  0.3415821442755940  0.6400832948543812   T   T   T
  0.6649839371966171  0.8402983408256186  0.6403809390890827   T   T   T
 -0.0022383527766686  0.0651314966705697  0.7165631052002239   T   T   T
 -0.0079794795957885  0.1192277830249323  0.7538220317804751   T   T   T
 
  0.00000000E+00  0.00000000E+00  0.00000000E+00
  0.00000000E+00  0.00000000E+00  0.00000000E+00
  0.00000000E+00  0.00000000E+00  0.00000000E+00
  0.00000000E+00  0.00000000E+00  0.00000000E+00
  0.00000000E+00  0.00000000E+00  0.00000000E+00
  0.00000000E+00  0.00000000E+00  0.00000000E+00
  0.00000000E+00  0.00000000E+00  0.00000000E+00
  0.00000000E+00  0.00000000E+00  0.00000000E+00
  0.00000000E+00  0.00000000E+00  0.00000000E+00
  0.00000000E+00  0.00000000E+00  0.00000000E+00
  0.00000000E+00  0.00000000E+00  0.00000000E+00
  0.00000000E+00  0.00000000E+00  0.00000000E+00
  0.00000000E+00  0.00000000E+00  0.00000000E+00
  0.00000000E+00  0.00000000E+00  0.00000000E+00
  0.00000000E+00  0.00000000E+00  0.00000000E+00
  0.00000000E+00  0.00000000E+00  0.00000000E+00
  0.00000000E+00  0.00000000E+00  0.00000000E+00
  0.00000000E+00  0.00000000E+00  0.00000000E+00
  0.00000000E+00  0.00000000E+00  0.00000000E+00
  0.00000000E+00  0.00000000E+00  0.00000000E+00
  0.00000000E+00  0.00000000E+00  0.00000000E+00
  0.00000000E+00  0.00000000E+00  0.00000000E+00
  0.00000000E+00  0.00000000E+00  0.00000000E+00
  0.00000000E+00  0.00000000E+00  0.00000000E+00
  0.00000000E+00  0.00000000E+00  0.00000000E+00
  0.00000000E+00  0.00000000E+00  0.00000000E+00
  0.00000000E+00  0.00000000E+00  0.00000000E+00
  0.00000000E+00  0.00000000E+00  0.00000000E+00
  0.00000000E+00  0.00000000E+00  0.00000000E+00
  0.00000000E+00  0.00000000E+00  0.00000000E+00
  0.00000000E+00  0.00000000E+00  0.00000000E+00
  0.00000000E+00  0.00000000E+00  0.00000000E+00
  0.00000000E+00  0.00000000E+00  0.00000000E+00
  0.00000000E+00  0.00000000E+00  0.00000000E+00
  0.00000000E+00  0.00000000E+00  0.00000000E+00
  0.00000000E+00  0.00000000E+00  0.00000000E+00
  0.00000000E+00  0.00000000E+00  0.00000000E+00
  0.00000000E+00  0.00000000E+00  0.00000000E+00
