Ce12 C1 O25                             
   1.00000000000000     
     7.7074639999999999    0.0000000000000000    0.0000000000000000
    -3.8537319999999999    6.6748599999999998    0.0000000000000000
     0.0000000000000000    0.0000000000000000   28.3190309999999990
   Ce   O    C    O 
    12    24     1     1
Selective dynamics
Direct
  0.1663518612198847  0.3308614622881307  0.3870257818280499   T   T   T
  0.1663662572624032  0.8307915367875054  0.3870072230194310   T   T   T
  0.6663926077636173  0.3308421183692176  0.3869907991310554   T   T   T
  0.6663303818947433  0.8308259234923392  0.3871354467261132   T   T   T
  0.0012494149438998 -0.0019928554348044  0.6118817402812331   T   T   T
  0.0002493524726041  0.4982312965612858  0.6129478492903445   T   T   T
  0.5008317465323195 -0.0018947013536932  0.6118375692101461   T   T   T
  0.5010735599032538  0.4978670328377882  0.6118557552575087   T   T   T
  0.3336419420710716  0.1644987690432917  0.4994162703752570   T   T   T
  0.3331057946679667  0.6641728001749386  0.4996139276312432   T   T   T
  0.8339170428538787  0.1649169455959789  0.4995788568007906   T   T   T
  0.8338183373983887  0.6643604375344058  0.4995239706634134   T   T   T
  0.1671447795792331  0.3307314732337359  0.4707410611836518   T   T   T
  0.1673414894656984  0.8319169300252383  0.4706505177311813   T   T   T
  0.6659495281008837  0.3305317446222547  0.4706640445680477   T   T   T
  0.6667574609783095  0.8311664621893120  0.4705372895026892   T   T   T
 -0.0006556720363996 -0.0028483911247653  0.3587763053032368   T   T   T
 -0.0003691810572440  0.4974708698808759  0.3586632976817295   T   T   T
  0.4997659671498771 -0.0027488300273271  0.3587870115676223   T   T   T
  0.4998972964809857  0.4977090258046323  0.3587519767051645   T   T   T
  0.3341785203954256  0.1647641269105894  0.5827665512233156   T   T   T
  0.3319258197177617  0.6632539016213121  0.5837967430626946   T   T   T
  0.8355151928918910  0.1665968526793671  0.5837680858185448   T   T   T
  0.8349539443139288  0.6641812773133863  0.5837472309148237   T   T   T
 -0.0005403122628104 -0.0026979278738712  0.5285230792400243   T   T   T
  0.0001642744825753  0.4979504947060379  0.5280593733119455   T   T   T
  0.5010472988048787 -0.0028418862451096  0.5285951280012776   T   T   T
  0.5010845138532015  0.4990480310324560  0.5285266077373043   T   T   T
  0.3329921257176652  0.1643238911108312  0.4155386614688646   T   T   T
  0.3325861780664238  0.6637569805600959  0.4157647206108835   T   T   T
  0.8335918128441784  0.1647559232822000  0.4157552634996033   T   T   T
  0.8333563779689180  0.6640004746371546  0.4157826879841813   T   T   T
  0.1704090405358422  0.3287404142884747  0.6409137548804088   T   T   T
  0.1696879841591009  0.8355203019268567  0.6404614842844096   T   T   T
  0.6641755681029563  0.3298153113801509  0.6403533530019703   T   T   T
  0.6673512126112882  0.8315716970976021  0.6403732104642024   T   T   T
  0.0454893989137071  0.4882717223715921  0.7123344138552877   T   T   T
  0.0910390812376920  0.4804663627005299  0.7503429561823461   T   T   T
 
  0.00000000E+00  0.00000000E+00  0.00000000E+00
  0.00000000E+00  0.00000000E+00  0.00000000E+00
  0.00000000E+00  0.00000000E+00  0.00000000E+00
  0.00000000E+00  0.00000000E+00  0.00000000E+00
  0.00000000E+00  0.00000000E+00  0.00000000E+00
  0.00000000E+00  0.00000000E+00  0.00000000E+00
  0.00000000E+00  0.00000000E+00  0.00000000E+00
  0.00000000E+00  0.00000000E+00  0.00000000E+00
  0.00000000E+00  0.00000000E+00  0.00000000E+00
  0.00000000E+00  0.00000000E+00  0.00000000E+00
  0.00000000E+00  0.00000000E+00  0.00000000E+00
  0.00000000E+00  0.00000000E+00  0.00000000E+00
  0.00000000E+00  0.00000000E+00  0.00000000E+00
  0.00000000E+00  0.00000000E+00  0.00000000E+00
  0.00000000E+00  0.00000000E+00  0.00000000E+00
  0.00000000E+00  0.00000000E+00  0.00000000E+00
  0.00000000E+00  0.00000000E+00  0.00000000E+00
  0.00000000E+00  0.00000000E+00  0.00000000E+00
  0.00000000E+00  0.00000000E+00  0.00000000E+00
  0.00000000E+00  0.00000000E+00  0.00000000E+00
  0.00000000E+00  0.00000000E+00  0.00000000E+00
  0.00000000E+00  0.00000000E+00  0.00000000E+00
  0.00000000E+00  0.00000000E+00  0.00000000E+00
  0.00000000E+00  0.00000000E+00  0.00000000E+00
  0.00000000E+00  0.00000000E+00  0.00000000E+00
  0.00000000E+00  0.00000000E+00  0.00000000E+00
  0.00000000E+00  0.00000000E+00  0.00000000E+00
  0.00000000E+00  0.00000000E+00  0.00000000E+00
  0.00000000E+00  0.00000000E+00  0.00000000E+00
  0.00000000E+00  0.00000000E+00  0.00000000E+00
  0.00000000E+00  0.00000000E+00  0.00000000E+00
  0.00000000E+00  0.00000000E+00  0.00000000E+00
  0.00000000E+00  0.00000000E+00  0.00000000E+00
  0.00000000E+00  0.00000000E+00  0.00000000E+00
  0.00000000E+00  0.00000000E+00  0.00000000E+00
  0.00000000E+00  0.00000000E+00  0.00000000E+00
  0.00000000E+00  0.00000000E+00  0.00000000E+00
  0.00000000E+00  0.00000000E+00  0.00000000E+00
