Ce12 C1 O25                             
   1.00000000000000     
     7.7074639999999999    0.0000000000000000    0.0000000000000000
    -3.8537319999999999    6.6748599999999998    0.0000000000000000
     0.0000000000000000    0.0000000000000000   28.3190309999999990
   Ce   O    C    O 
    12    24     1     1
Selective dynamics
Direct
  0.1670808582681385  0.3281239694205978  0.3868966697490072   T   T   T
  0.1670726974172210  0.8279668639700098  0.3868820475070263   T   T   T
  0.6672390001190170  0.3281330962908585  0.3868817221855949   T   T   T
  0.6671513036474980  0.8280931861989297  0.3870508843483068   T   T   T
 -0.0006101528334798 -0.0076768704437847  0.6118229351112336   T   T   T
 -0.0005539008023041  0.4934760125048500  0.6133622109842689   T   T   T
  0.4990136702600423 -0.0072860207000187  0.6118542233830399   T   T   T
  0.4992487563096608  0.4925633483874561  0.6118888711101047   T   T   T
  0.3331464474089951  0.1603922524654199  0.4993819934948633   T   T   T
  0.3326189536197238  0.6601641088729352  0.4995869406296036   T   T   T
  0.8335522663959690  0.1610720914145464  0.4996359308322330   T   T   T
  0.8333370999080062  0.6600371846028593  0.4995534562231785   T   T   T
  0.1667594025456830  0.3269990574496972  0.4706259440227246   T   T   T
  0.1670426771024558  0.8279190566199623  0.4705682733078688   T   T   T
  0.6661640112610592  0.3269204767206745  0.4705714799560803   T   T   T
  0.6666575870549855  0.8275153883981590  0.4705031585342606   T   T   T
  0.0002723650610019 -0.0053949522458950  0.3586465199683664   T   T   T
  0.0005022352920258  0.4949220514339185  0.3584881070811120   T   T   T
  0.5006340205013693 -0.0052852473220704  0.3586583471890726   T   T   T
  0.5007114312155245  0.4950998837974812  0.3586281173942243   T   T   T
  0.3324685525644303  0.1593670272817737  0.5828092982834878   T   T   T
  0.3309890899935286  0.6584182370941963  0.5837768819100768   T   T   T
  0.8341062107929108  0.1617885196022181  0.5838099232986936   T   T   T
  0.8330911318356836  0.6584674788858982  0.5837773461036710   T   T   T
 -0.0014237924880145 -0.0072229447042172  0.5284777619749221   T   T   T
 -0.0002457091486213  0.4938245672111261  0.5282898214096626   T   T   T
  0.5002859073780532 -0.0069381962206731  0.5285457781824648   T   T   T
  0.5001505426427730  0.4944571547497953  0.5284265909843131   T   T   T
  0.3336583848276835  0.1613556777697846  0.4154631298485231   T   T   T
  0.3331467258723680  0.6608119416182248  0.4156550802659774   T   T   T
  0.8340907001021625  0.1618180214074413  0.4156486523678573   T   T   T
  0.8338960309044992  0.6609543830935867  0.4156668558953870   T   T   T
  0.1684425706416303  0.3233494581599620  0.6407438243955212   T   T   T
  0.1669613261173871  0.8283519812531664  0.6403917421787382   T   T   T
  0.6613840023529399  0.3233579401053681  0.6405643180210914   T   T   T
  0.6659939929068383  0.8264560272276379  0.6403549401108993   T   T   T
 -0.0265367025444866  0.4048086473707429  0.7146560866551864   T   T   T
  0.9469553054956370  0.3183961402573874  0.7492441351013536   T   T   T
 
  0.00000000E+00  0.00000000E+00  0.00000000E+00
  0.00000000E+00  0.00000000E+00  0.00000000E+00
  0.00000000E+00  0.00000000E+00  0.00000000E+00
  0.00000000E+00  0.00000000E+00  0.00000000E+00
  0.00000000E+00  0.00000000E+00  0.00000000E+00
  0.00000000E+00  0.00000000E+00  0.00000000E+00
  0.00000000E+00  0.00000000E+00  0.00000000E+00
  0.00000000E+00  0.00000000E+00  0.00000000E+00
  0.00000000E+00  0.00000000E+00  0.00000000E+00
  0.00000000E+00  0.00000000E+00  0.00000000E+00
  0.00000000E+00  0.00000000E+00  0.00000000E+00
  0.00000000E+00  0.00000000E+00  0.00000000E+00
  0.00000000E+00  0.00000000E+00  0.00000000E+00
  0.00000000E+00  0.00000000E+00  0.00000000E+00
  0.00000000E+00  0.00000000E+00  0.00000000E+00
  0.00000000E+00  0.00000000E+00  0.00000000E+00
  0.00000000E+00  0.00000000E+00  0.00000000E+00
  0.00000000E+00  0.00000000E+00  0.00000000E+00
  0.00000000E+00  0.00000000E+00  0.00000000E+00
  0.00000000E+00  0.00000000E+00  0.00000000E+00
  0.00000000E+00  0.00000000E+00  0.00000000E+00
  0.00000000E+00  0.00000000E+00  0.00000000E+00
  0.00000000E+00  0.00000000E+00  0.00000000E+00
  0.00000000E+00  0.00000000E+00  0.00000000E+00
  0.00000000E+00  0.00000000E+00  0.00000000E+00
  0.00000000E+00  0.00000000E+00  0.00000000E+00
  0.00000000E+00  0.00000000E+00  0.00000000E+00
  0.00000000E+00  0.00000000E+00  0.00000000E+00
  0.00000000E+00  0.00000000E+00  0.00000000E+00
  0.00000000E+00  0.00000000E+00  0.00000000E+00
  0.00000000E+00  0.00000000E+00  0.00000000E+00
  0.00000000E+00  0.00000000E+00  0.00000000E+00
  0.00000000E+00  0.00000000E+00  0.00000000E+00
  0.00000000E+00  0.00000000E+00  0.00000000E+00
  0.00000000E+00  0.00000000E+00  0.00000000E+00
  0.00000000E+00  0.00000000E+00  0.00000000E+00
  0.00000000E+00  0.00000000E+00  0.00000000E+00
  0.00000000E+00  0.00000000E+00  0.00000000E+00
