Ce12 C1 O25                             
   1.00000000000000     
     7.7074639999999999    0.0000000000000000    0.0000000000000000
    -3.8537319999999999    6.6748599999999998    0.0000000000000000
     0.0000000000000000    0.0000000000000000   28.3190309999999990
   Ce   O    C    O 
    12    24     1     1
Selective dynamics
Direct
  0.1653795224348652  0.3333358248931321  0.3857903573741693   T   T   T
  0.1655427365443259  0.8335048936128574  0.3858667865234487   T   T   T
  0.6655303123016237  0.3333118630577322  0.3857259042953300   T   T   T
  0.6655354573389797  0.8335845906719472  0.3858671235468624   T   T   T
 -0.0020670705324568  0.0002073999355031  0.6106332034740775   T   T   T
 -0.0029958676656735  0.4995426876946903  0.6105891666685788   T   T   T
  0.4975601447242409  0.0001194591549573  0.6106614371168803   T   T   T
  0.4970337879005290  0.4997927815101747  0.6106142497641931   T   T   T
  0.3314345261383940  0.1668730885996767  0.4982807980654035   T   T   T
  0.3311101797875332  0.6666741365409252  0.4983207067990934   T   T   T
  0.8313688013836444  0.1665675356772036  0.4982934786422051   T   T   T
  0.8312142419649331  0.6667424543506147  0.4983072274199346   T   T   T
  0.1647549567451385  0.3335252446294622  0.4694085820491857   T   T   T
  0.1651338146867896  0.8333329792228165  0.4694717334297134   T   T   T
  0.6646872485777776  0.3331411241662571  0.4691918880921022   T   T   T
  0.6646626461426777  0.8336276101653136  0.4695320364256833   T   T   T
 -0.0010985697961869  0.0002293181795233  0.3574722527397826   T   T   T
 -0.0014072598714579  0.4996969994727153  0.3574066541497148   T   T   T
  0.4993773338789965  0.0004731566764969  0.3575282710114849   T   T   T
  0.4991341608652272  0.5000551131991313  0.3575678451607770   T   T   T
  0.3310682208573265  0.1673866018369649  0.5818870939033164   T   T   T
  0.3297400643170799  0.6657244041160965  0.5820268523588324   T   T   T
  0.8316399363053113  0.1671384344496692  0.5819753035902823   T   T   T
  0.8306005655288412  0.6661475238911323  0.5821874791802093   T   T   T
 -0.0019168028374781 -0.0003916784392209  0.5272789619795446   T   T   T
 -0.0030324406595386  0.4998403225591413  0.5271606320704406   T   T   T
  0.4979729747076222  0.0002650274958157  0.5273999194555807   T   T   T
  0.4981551325200790  0.5003835574813713  0.5271583544240963   T   T   T
  0.3315253188152055  0.1663174839862244  0.4144407439079010   T   T   T
  0.3319817074071136  0.6669293367985984  0.4144167563299231   T   T   T
  0.8321902049430511  0.1664837155897387  0.4144479980421280   T   T   T
  0.8324363505258027  0.6673348130631962  0.4145108039284786   T   T   T
  0.1640238515802292  0.3326139708766535  0.6390039564616571   T   T   T
  0.1645299072125118  0.8342722940652247  0.6387972976610249   T   T   T
  0.6627571508851005  0.3322195987244905  0.6386140998800623   T   T   T
  0.6637870798482821  0.8338691243438833  0.6389731595420663   T   T   T
  0.0048640147800868  0.3098052954472652  0.7678608782432224   T   T   T
  0.9176176597134746  0.3559879123026306  0.7431200062926133   T   T   T
 
  0.00000000E+00  0.00000000E+00  0.00000000E+00
  0.00000000E+00  0.00000000E+00  0.00000000E+00
  0.00000000E+00  0.00000000E+00  0.00000000E+00
  0.00000000E+00  0.00000000E+00  0.00000000E+00
  0.00000000E+00  0.00000000E+00  0.00000000E+00
  0.00000000E+00  0.00000000E+00  0.00000000E+00
  0.00000000E+00  0.00000000E+00  0.00000000E+00
  0.00000000E+00  0.00000000E+00  0.00000000E+00
  0.00000000E+00  0.00000000E+00  0.00000000E+00
  0.00000000E+00  0.00000000E+00  0.00000000E+00
  0.00000000E+00  0.00000000E+00  0.00000000E+00
  0.00000000E+00  0.00000000E+00  0.00000000E+00
  0.00000000E+00  0.00000000E+00  0.00000000E+00
  0.00000000E+00  0.00000000E+00  0.00000000E+00
  0.00000000E+00  0.00000000E+00  0.00000000E+00
  0.00000000E+00  0.00000000E+00  0.00000000E+00
  0.00000000E+00  0.00000000E+00  0.00000000E+00
  0.00000000E+00  0.00000000E+00  0.00000000E+00
  0.00000000E+00  0.00000000E+00  0.00000000E+00
  0.00000000E+00  0.00000000E+00  0.00000000E+00
  0.00000000E+00  0.00000000E+00  0.00000000E+00
  0.00000000E+00  0.00000000E+00  0.00000000E+00
  0.00000000E+00  0.00000000E+00  0.00000000E+00
  0.00000000E+00  0.00000000E+00  0.00000000E+00
  0.00000000E+00  0.00000000E+00  0.00000000E+00
  0.00000000E+00  0.00000000E+00  0.00000000E+00
  0.00000000E+00  0.00000000E+00  0.00000000E+00
  0.00000000E+00  0.00000000E+00  0.00000000E+00
  0.00000000E+00  0.00000000E+00  0.00000000E+00
  0.00000000E+00  0.00000000E+00  0.00000000E+00
  0.00000000E+00  0.00000000E+00  0.00000000E+00
  0.00000000E+00  0.00000000E+00  0.00000000E+00
  0.00000000E+00  0.00000000E+00  0.00000000E+00
  0.00000000E+00  0.00000000E+00  0.00000000E+00
  0.00000000E+00  0.00000000E+00  0.00000000E+00
  0.00000000E+00  0.00000000E+00  0.00000000E+00
  0.00000000E+00  0.00000000E+00  0.00000000E+00
  0.00000000E+00  0.00000000E+00  0.00000000E+00
