Ce12 C1 O25                             
   1.00000000000000     
     7.7074639999999999    0.0000000000000000    0.0000000000000000
    -3.8537319999999999    6.6748599999999998    0.0000000000000000
     0.0000000000000000    0.0000000000000000   28.3190309999999990
   Ce   O    C    O 
    12    24     1     1
Selective dynamics
Direct
  0.1666567253735597  0.3338989810519581  0.3878123568242565   T   T   T
  0.1666839095170078  0.8340775314792488  0.3878223843507347   T   T   T
  0.6667210451249472  0.3339847502042994  0.3880382364971819   T   T   T
  0.6668413094424659  0.8340914029065082  0.3878091982206286   T   T   T
 -0.0000321523612670  0.0005389281582436  0.6141840299634489   T   T   T
  0.0001465576272929  0.5008634943996670  0.6126532287038299   T   T   T
  0.4997529665115454  0.0002681017589912  0.6126938837498929   T   T   T
  0.5000161450225620  0.5008127954926190  0.6126784340932268   T   T   T
  0.3327430956159469  0.1669827871007851  0.5005021821518937   T   T   T
  0.3333149343871679  0.6672237567036430  0.5002063048818587   T   T   T
  0.8334813600323470  0.1670109038213853  0.5005041512688339   T   T   T
  0.8335982176172153  0.6679204705421328  0.5004807394779632   T   T   T
  0.1667198740748160  0.3343640778535102  0.4714955637222954   T   T   T
  0.1670470056918847  0.8338051477159428  0.4714145669668212   T   T   T
  0.6665721871345717  0.3335463505261879  0.4714504183680014   T   T   T
  0.6661091185692553  0.8339343057788920  0.4714353463716749   T   T   T
  0.0000479249040732  0.0006176481329153  0.3594349430578825   T   T   T
 -0.0002246927779601  0.5006494654020335  0.3596405657230802   T   T   T
  0.5001820302347874  0.0009852104482962  0.3596422055146092   T   T   T
  0.5002927257465412  0.5006128650258628  0.3596314268495215   T   T   T
  0.3314687710432936  0.1669139694790891  0.5846534405245877   T   T   T
  0.3335256610299281  0.6668982712605784  0.5834827748830941   T   T   T
  0.8344173836053340  0.1665848968395591  0.5845740849447887   T   T   T
  0.8338002745115465  0.6689594021785231  0.5847261982047477   T   T   T
 -0.0001264135004463  0.0003858361993464  0.5292641499052074   T   T   T
 -0.0012988423788032  0.5003742074632616  0.5292842158470027   T   T   T
  0.5002348481038549  0.0015673237989704  0.5293647587118918   T   T   T
  0.5009174778721192  0.5000401726930546  0.5292028467491846   T   T   T
  0.3328619160341039  0.1671937526200888  0.4166287260244916   T   T   T
  0.3333527565805478  0.6672510623770025  0.4162986631652455   T   T   T
  0.8336959075494920  0.1671310604243465  0.4165954522651292   T   T   T
  0.8335387734647363  0.6677675159036393  0.4166856078955346   T   T   T
  0.1686727854838220  0.3386383290400571  0.6415957152824853   T   T   T
  0.1685649939882575  0.8321547689967166  0.6412564843195409   T   T   T
  0.6664524654457586  0.3332772737469430  0.6412032846878968   T   T   T
  0.6628919466086163  0.8324686320861063  0.6415353225735616   T   T   T
  0.0010219325618983  0.0283389027382872  0.7163942390271645   T   T   T
 -0.0006629254928224  0.0589776476513147  0.7558398682308087   T   T   T
 
  0.00000000E+00  0.00000000E+00  0.00000000E+00
  0.00000000E+00  0.00000000E+00  0.00000000E+00
  0.00000000E+00  0.00000000E+00  0.00000000E+00
  0.00000000E+00  0.00000000E+00  0.00000000E+00
  0.00000000E+00  0.00000000E+00  0.00000000E+00
  0.00000000E+00  0.00000000E+00  0.00000000E+00
  0.00000000E+00  0.00000000E+00  0.00000000E+00
  0.00000000E+00  0.00000000E+00  0.00000000E+00
  0.00000000E+00  0.00000000E+00  0.00000000E+00
  0.00000000E+00  0.00000000E+00  0.00000000E+00
  0.00000000E+00  0.00000000E+00  0.00000000E+00
  0.00000000E+00  0.00000000E+00  0.00000000E+00
  0.00000000E+00  0.00000000E+00  0.00000000E+00
  0.00000000E+00  0.00000000E+00  0.00000000E+00
  0.00000000E+00  0.00000000E+00  0.00000000E+00
  0.00000000E+00  0.00000000E+00  0.00000000E+00
  0.00000000E+00  0.00000000E+00  0.00000000E+00
  0.00000000E+00  0.00000000E+00  0.00000000E+00
  0.00000000E+00  0.00000000E+00  0.00000000E+00
  0.00000000E+00  0.00000000E+00  0.00000000E+00
  0.00000000E+00  0.00000000E+00  0.00000000E+00
  0.00000000E+00  0.00000000E+00  0.00000000E+00
  0.00000000E+00  0.00000000E+00  0.00000000E+00
  0.00000000E+00  0.00000000E+00  0.00000000E+00
  0.00000000E+00  0.00000000E+00  0.00000000E+00
  0.00000000E+00  0.00000000E+00  0.00000000E+00
  0.00000000E+00  0.00000000E+00  0.00000000E+00
  0.00000000E+00  0.00000000E+00  0.00000000E+00
  0.00000000E+00  0.00000000E+00  0.00000000E+00
  0.00000000E+00  0.00000000E+00  0.00000000E+00
  0.00000000E+00  0.00000000E+00  0.00000000E+00
  0.00000000E+00  0.00000000E+00  0.00000000E+00
  0.00000000E+00  0.00000000E+00  0.00000000E+00
  0.00000000E+00  0.00000000E+00  0.00000000E+00
  0.00000000E+00  0.00000000E+00  0.00000000E+00
  0.00000000E+00  0.00000000E+00  0.00000000E+00
  0.00000000E+00  0.00000000E+00  0.00000000E+00
  0.00000000E+00  0.00000000E+00  0.00000000E+00
