Ce12 C1 O25                             
   1.00000000000000     
     7.7074639999999999    0.0000000000000000    0.0000000000000000
    -3.8537319999999999    6.6748599999999998    0.0000000000000000
     0.0000000000000000    0.0000000000000000   28.3190309999999990
   Ce   O    C    O 
    12    24     1     1
Selective dynamics
Direct
  0.1650412791836154  0.3314033406764723  0.3861694321435837   T   T   T
  0.1650072343243145  0.8314756167674611  0.3861962095411547   T   T   T
  0.6649720048665018  0.3314481469905800  0.3861556899901939   T   T   T
  0.6649335686848349  0.8313923545871224  0.3862218958435216   T   T   T
 -0.0017440397184226 -0.0022012375838202  0.6112990831789322   T   T   T
 -0.0017755937911285  0.4978873579414356  0.6112119567814419   T   T   T
  0.4982743054394451 -0.0019649985981741  0.6111199178507470   T   T   T
  0.4980501098206663  0.4980216200037058  0.6112393159986388   T   T   T
  0.3316824656616550  0.1649358562440068  0.4987098408559682   T   T   T
  0.3315765037674320  0.6646937286920772  0.4987229926094269   T   T   T
  0.8317534086110152  0.1649402239193746  0.4987111304788738   T   T   T
  0.8316599538168816  0.6648134268140850  0.4987046011025856   T   T   T
  0.1646573188655330  0.3316476755445195  0.4698402584271633   T   T   T
  0.1649589071503614  0.8311115167645421  0.4697053806129384   T   T   T
  0.6654164012321151  0.3314751461327823  0.4696953361416457   T   T   T
  0.6648861254956985  0.8316678922414332  0.4699005978154197   T   T   T
 -0.0013724735703521 -0.0019872848898474  0.3579226589028629   T   T   T
 -0.0018609826277163  0.4981759371324729  0.3579195754057465   T   T   T
  0.4980127444225140 -0.0018654851043127  0.3579239152882764   T   T   T
  0.4982484874598699  0.4977939658527918  0.3578286031783528   T   T   T
  0.3313631141522739  0.1652626946816279  0.5827003163843708   T   T   T
  0.3317959103125671  0.6640558522314972  0.5824113546906381   T   T   T
  0.8319604234643631  0.1645678090131825  0.5824746102217047   T   T   T
  0.8311156498016983  0.6648565463092040  0.5826790333726584   T   T   T
 -0.0013237365742253 -0.0020462845681297  0.5276109324118657   T   T   T
 -0.0019633197597154  0.4983782049911865  0.5277103179465373   T   T   T
  0.4979542973002801 -0.0015637503989146  0.5276516066244529   T   T   T
  0.4985094638672522  0.4977293323506644  0.5275182423942131   T   T   T
  0.3316144558488361  0.1650513189648176  0.4149529417045482   T   T   T
  0.3318882515451376  0.6645532936276868  0.4148221485720395   T   T   T
  0.8317196159580511  0.1645069218088707  0.4148079527940142   T   T   T
  0.8312976924306446  0.6648991050911379  0.4148788344672466   T   T   T
  0.1645422949447101  0.3316736529795237  0.6396985418925200   T   T   T
  0.1655618905239049  0.8309228924742619  0.6391454885184156   T   T   T
  0.6651323075976281  0.3311273845368792  0.6395719488009859   T   T   T
  0.6641613729874806  0.8316454740683238  0.6394734743237915   T   T   T
 -0.0153292658432253  0.1213142789446966  0.7579564979452349   T   T   T
  0.9920768523475004 -0.0006675272352203  0.7365273647872888   T   T   T
 
  0.00000000E+00  0.00000000E+00  0.00000000E+00
  0.00000000E+00  0.00000000E+00  0.00000000E+00
  0.00000000E+00  0.00000000E+00  0.00000000E+00
  0.00000000E+00  0.00000000E+00  0.00000000E+00
  0.00000000E+00  0.00000000E+00  0.00000000E+00
  0.00000000E+00  0.00000000E+00  0.00000000E+00
  0.00000000E+00  0.00000000E+00  0.00000000E+00
  0.00000000E+00  0.00000000E+00  0.00000000E+00
  0.00000000E+00  0.00000000E+00  0.00000000E+00
  0.00000000E+00  0.00000000E+00  0.00000000E+00
  0.00000000E+00  0.00000000E+00  0.00000000E+00
  0.00000000E+00  0.00000000E+00  0.00000000E+00
  0.00000000E+00  0.00000000E+00  0.00000000E+00
  0.00000000E+00  0.00000000E+00  0.00000000E+00
  0.00000000E+00  0.00000000E+00  0.00000000E+00
  0.00000000E+00  0.00000000E+00  0.00000000E+00
  0.00000000E+00  0.00000000E+00  0.00000000E+00
  0.00000000E+00  0.00000000E+00  0.00000000E+00
  0.00000000E+00  0.00000000E+00  0.00000000E+00
  0.00000000E+00  0.00000000E+00  0.00000000E+00
  0.00000000E+00  0.00000000E+00  0.00000000E+00
  0.00000000E+00  0.00000000E+00  0.00000000E+00
  0.00000000E+00  0.00000000E+00  0.00000000E+00
  0.00000000E+00  0.00000000E+00  0.00000000E+00
  0.00000000E+00  0.00000000E+00  0.00000000E+00
  0.00000000E+00  0.00000000E+00  0.00000000E+00
  0.00000000E+00  0.00000000E+00  0.00000000E+00
  0.00000000E+00  0.00000000E+00  0.00000000E+00
  0.00000000E+00  0.00000000E+00  0.00000000E+00
  0.00000000E+00  0.00000000E+00  0.00000000E+00
  0.00000000E+00  0.00000000E+00  0.00000000E+00
  0.00000000E+00  0.00000000E+00  0.00000000E+00
  0.00000000E+00  0.00000000E+00  0.00000000E+00
  0.00000000E+00  0.00000000E+00  0.00000000E+00
  0.00000000E+00  0.00000000E+00  0.00000000E+00
  0.00000000E+00  0.00000000E+00  0.00000000E+00
  0.00000000E+00  0.00000000E+00  0.00000000E+00
  0.00000000E+00  0.00000000E+00  0.00000000E+00
