Ce12 C1 O25                             
   1.00000000000000     
     7.7074639999999999    0.0000000000000000    0.0000000000000000
    -3.8537319999999999    6.6748599999999998    0.0000000000000000
     0.0000000000000000    0.0000000000000000   28.3190309999999990
   Ce   O    C    O 
    12    24     1     1
Selective dynamics
Direct
  0.1666760384467507  0.3334719461338237  0.3862763223991899   T   T   T
  0.1666604009346258  0.8333725733457967  0.3862560990740365   T   T   T
  0.6667871504581145  0.3335072144432347  0.3862568210672938   T   T   T
  0.6667126309961285  0.8334275270795176  0.3863343907358676   T   T   T
  0.0004241784898978 -0.0012703054040404  0.6110956662800356   T   T   T
  0.0001308826814567  0.4993455060855513  0.6118011092594499   T   T   T
  0.5003343729270190 -0.0006092516504120  0.6112915555265298   T   T   T
  0.5007252805297996  0.4993693590294127  0.6111824460350757   T   T   T
  0.3335157825586163  0.1664286273139216  0.4987240701075705   T   T   T
  0.3333010040987459  0.6663700241833672  0.4988552763302276   T   T   T
  0.8336653367171940  0.1667281728391785  0.4988390182552032   T   T   T
  0.8335581039981463  0.6663349820207374  0.4987941739368789   T   T   T
  0.1668746903633000  0.3332259844799847  0.4699219359922399   T   T   T
  0.1669259911968181  0.8333222104085460  0.4699327646553655   T   T   T
  0.6666814006084133  0.3331885293344785  0.4698801376837115   T   T   T
  0.6667032642578489  0.8331584291868962  0.4698637854230185   T   T   T
 -0.0000292623761783  0.0001804078197995  0.3579954580119006   T   T   T
  0.0000298605541444  0.5000791824248739  0.3579113235100331   T   T   T
  0.5000946046976206  0.0001168906169060  0.3581115796006065   T   T   T
  0.5000341023587854  0.5001904494336296  0.3579945113719009   T   T   T
  0.3334787575936451  0.1653331243889456  0.5824258403054823   T   T   T
  0.3330791344182378  0.6660547521890419  0.5828389510530071   T   T   T
  0.8341985113360595  0.1667861360224486  0.5828918027152850   T   T   T
  0.8341723080503322  0.6661845994787751  0.5826400253314381   T   T   T
 -0.0001100458795180 -0.0002644967933425  0.5276773815673294   T   T   T
  0.0002201324398598  0.4995227606709969  0.5278422177076130   T   T   T
  0.5006826178889152 -0.0004014769460328  0.5277572443651961   T   T   T
  0.5001294873063504  0.4998248274618193  0.5277396399871619   T   T   T
  0.3332486001702290  0.1668051936554159  0.4149314310322681   T   T   T
  0.3330528407997710  0.6664362990232444  0.4149643498258844   T   T   T
  0.8337215566734791  0.1670340605289818  0.4150001002132975   T   T   T
  0.8335291073611649  0.6666624665898299  0.4149951207000089   T   T   T
  0.1690449625763037  0.3321419596324694  0.6393381346488137   T   T   T
  0.1668903333763111  0.8327799006512677  0.6396726234456935   T   T   T
  0.6659529882528720  0.3326345676373177  0.6393805902803820   T   T   T
  0.6673350941400810  0.8329094981120851  0.6396016279132200   T   T   T
  0.0352036441214942  0.3221508559686270  0.7352742888651547   T   T   T
  0.1045321548771607  0.2430225126029001  0.7555001847866255   T   T   T
 
  0.00000000E+00  0.00000000E+00  0.00000000E+00
  0.00000000E+00  0.00000000E+00  0.00000000E+00
  0.00000000E+00  0.00000000E+00  0.00000000E+00
  0.00000000E+00  0.00000000E+00  0.00000000E+00
  0.00000000E+00  0.00000000E+00  0.00000000E+00
  0.00000000E+00  0.00000000E+00  0.00000000E+00
  0.00000000E+00  0.00000000E+00  0.00000000E+00
  0.00000000E+00  0.00000000E+00  0.00000000E+00
  0.00000000E+00  0.00000000E+00  0.00000000E+00
  0.00000000E+00  0.00000000E+00  0.00000000E+00
  0.00000000E+00  0.00000000E+00  0.00000000E+00
  0.00000000E+00  0.00000000E+00  0.00000000E+00
  0.00000000E+00  0.00000000E+00  0.00000000E+00
  0.00000000E+00  0.00000000E+00  0.00000000E+00
  0.00000000E+00  0.00000000E+00  0.00000000E+00
  0.00000000E+00  0.00000000E+00  0.00000000E+00
  0.00000000E+00  0.00000000E+00  0.00000000E+00
  0.00000000E+00  0.00000000E+00  0.00000000E+00
  0.00000000E+00  0.00000000E+00  0.00000000E+00
  0.00000000E+00  0.00000000E+00  0.00000000E+00
  0.00000000E+00  0.00000000E+00  0.00000000E+00
  0.00000000E+00  0.00000000E+00  0.00000000E+00
  0.00000000E+00  0.00000000E+00  0.00000000E+00
  0.00000000E+00  0.00000000E+00  0.00000000E+00
  0.00000000E+00  0.00000000E+00  0.00000000E+00
  0.00000000E+00  0.00000000E+00  0.00000000E+00
  0.00000000E+00  0.00000000E+00  0.00000000E+00
  0.00000000E+00  0.00000000E+00  0.00000000E+00
  0.00000000E+00  0.00000000E+00  0.00000000E+00
  0.00000000E+00  0.00000000E+00  0.00000000E+00
  0.00000000E+00  0.00000000E+00  0.00000000E+00
  0.00000000E+00  0.00000000E+00  0.00000000E+00
  0.00000000E+00  0.00000000E+00  0.00000000E+00
  0.00000000E+00  0.00000000E+00  0.00000000E+00
  0.00000000E+00  0.00000000E+00  0.00000000E+00
  0.00000000E+00  0.00000000E+00  0.00000000E+00
  0.00000000E+00  0.00000000E+00  0.00000000E+00
  0.00000000E+00  0.00000000E+00  0.00000000E+00
