Ce12 C1 O25                             
   1.00000000000000     
     7.7074639999999999    0.0000000000000000    0.0000000000000000
    -3.8537319999999999    6.6748599999999998    0.0000000000000000
     0.0000000000000000    0.0000000000000000   28.3190309999999990
   Ce   O    C    O 
    12    24     1     1
Selective dynamics
Direct
  0.1666400616281697  0.3327721082484264  0.3877808730880946   T   T   T
  0.1665815586960971  0.8325509745874323  0.3877264409816461   T   T   T
  0.6668148198622906  0.3328072755763811  0.3877310902110893   T   T   T
  0.6666764616474840  0.8327012309930953  0.3878676558939529   T   T   T
  0.0003760932893652 -0.0007459384628591  0.6128018418137382   T   T   T
 -0.0000373998874175  0.4997837300734882  0.6141376308870793   T   T   T
  0.4999920024947263 -0.0006890337511350  0.6128108126498497   T   T   T
  0.4999967058925402  0.4988653458170415  0.6128039902858783   T   T   T
  0.3333386102949107  0.1660398711828405  0.5001409607472783   T   T   T
  0.3328159657938615  0.6658932741165323  0.5004351768853317   T   T   T
  0.8334740181890299  0.1665222891339491  0.5004467107462024   T   T   T
  0.8334538706470024  0.6659172801570143  0.5004015417314946   T   T   T
  0.1666560295661337  0.3325961937563374  0.4714920379514167   T   T   T
  0.1668610766949991  0.8331834323267538  0.4713575799132477   T   T   T
  0.6662409132325553  0.3324935086958677  0.4713912040381252   T   T   T
  0.6666169772759953  0.8329873016184399  0.4713035194005507   T   T   T
  0.0001350495950699 -0.0006962171561218  0.3595410205277663   T   T   T
  0.0000165786019684  0.4996084477237297  0.3592272365555841   T   T   T
  0.4998880500492320 -0.0005999689517138  0.3595230568481712   T   T   T
  0.5000886407680784  0.4993651831957395  0.3595300489737209   T   T   T
  0.3337494496285510  0.1656533239628598  0.5836199594734895   T   T   T
  0.3317470510404211  0.6649396323337506  0.5847388613573976   T   T   T
  0.8343000409743068  0.1677792271668901  0.5846981568335224   T   T   T
  0.8338368937097241  0.6651025381633668  0.5847097834061162   T   T   T
 -0.0010775935191278 -0.0013065060707723  0.5293144373232641   T   T   T
 -0.0001337713014380  0.4997282990408874  0.5292599998986213   T   T   T
  0.5006131665354193 -0.0014206298927901  0.5292726573440528   T   T   T
  0.5005636279333081  0.5004862706234829  0.5292869999985574   T   T   T
  0.3332968642533591  0.1662653178516363  0.4163662680379874   T   T   T
  0.3330357711834561  0.6658038587529558  0.4165237701814062   T   T   T
  0.8335997202240747  0.1665048203082085  0.4164821915173331   T   T   T
  0.8333035243718080  0.6659768809220540  0.4165572400732777   T   T   T
  0.1689633037346282  0.3298986427978689  0.6417539603421769   T   T   T
  0.1681318774499178  0.8359651341380510  0.6415269165220889   T   T   T
  0.6627253599470684  0.3307195467046653  0.6416640784043219   T   T   T
  0.6667277202920081  0.8329018133771372  0.6412584760780459   T   T   T
  0.0000793407526221  0.4716908992731574  0.7165747969237780   T   T   T
 -0.0000884315421975  0.4408426416653457  0.7560570161543422   T   T   T
 
  0.00000000E+00  0.00000000E+00  0.00000000E+00
  0.00000000E+00  0.00000000E+00  0.00000000E+00
  0.00000000E+00  0.00000000E+00  0.00000000E+00
  0.00000000E+00  0.00000000E+00  0.00000000E+00
  0.00000000E+00  0.00000000E+00  0.00000000E+00
  0.00000000E+00  0.00000000E+00  0.00000000E+00
  0.00000000E+00  0.00000000E+00  0.00000000E+00
  0.00000000E+00  0.00000000E+00  0.00000000E+00
  0.00000000E+00  0.00000000E+00  0.00000000E+00
  0.00000000E+00  0.00000000E+00  0.00000000E+00
  0.00000000E+00  0.00000000E+00  0.00000000E+00
  0.00000000E+00  0.00000000E+00  0.00000000E+00
  0.00000000E+00  0.00000000E+00  0.00000000E+00
  0.00000000E+00  0.00000000E+00  0.00000000E+00
  0.00000000E+00  0.00000000E+00  0.00000000E+00
  0.00000000E+00  0.00000000E+00  0.00000000E+00
  0.00000000E+00  0.00000000E+00  0.00000000E+00
  0.00000000E+00  0.00000000E+00  0.00000000E+00
  0.00000000E+00  0.00000000E+00  0.00000000E+00
  0.00000000E+00  0.00000000E+00  0.00000000E+00
  0.00000000E+00  0.00000000E+00  0.00000000E+00
  0.00000000E+00  0.00000000E+00  0.00000000E+00
  0.00000000E+00  0.00000000E+00  0.00000000E+00
  0.00000000E+00  0.00000000E+00  0.00000000E+00
  0.00000000E+00  0.00000000E+00  0.00000000E+00
  0.00000000E+00  0.00000000E+00  0.00000000E+00
  0.00000000E+00  0.00000000E+00  0.00000000E+00
  0.00000000E+00  0.00000000E+00  0.00000000E+00
  0.00000000E+00  0.00000000E+00  0.00000000E+00
  0.00000000E+00  0.00000000E+00  0.00000000E+00
  0.00000000E+00  0.00000000E+00  0.00000000E+00
  0.00000000E+00  0.00000000E+00  0.00000000E+00
  0.00000000E+00  0.00000000E+00  0.00000000E+00
  0.00000000E+00  0.00000000E+00  0.00000000E+00
  0.00000000E+00  0.00000000E+00  0.00000000E+00
  0.00000000E+00  0.00000000E+00  0.00000000E+00
  0.00000000E+00  0.00000000E+00  0.00000000E+00
  0.00000000E+00  0.00000000E+00  0.00000000E+00
