Ce12 C1 O25                             
   1.00000000000000     
     7.7074639999999999    0.0000000000000000    0.0000000000000000
    -3.8537319999999999    6.6748599999999998    0.0000000000000000
     0.0000000000000000    0.0000000000000000   28.3190309999999990
   Ce   O    C    O 
    12    24     1     1
Selective dynamics
Direct
  0.1675012930202534  0.3335451259633825  0.3867881130649742   T   T   T
  0.1676679569244785  0.8336206628700306  0.3868191643385709   T   T   T
  0.6675301060816154  0.3334496284972637  0.3868180528161757   T   T   T
  0.6675209755995170  0.8336567215986882  0.3868215523281816   T   T   T
  0.0020431987426114  0.0006364459571218  0.6116712579984492   T   T   T
  0.0020008928334986  0.5002792895635935  0.6117460026588234   T   T   T
  0.5016805719471246  0.0003935641367506  0.6118909168202650   T   T   T
  0.5021002635023603  0.5005166119897856  0.6116625193593750   T   T   T
  0.3347319747709105  0.1670355231543952  0.4993126493626271   T   T   T
  0.3347341392174457  0.6670196190268957  0.4993341140830012   T   T   T
  0.8346052479138347  0.1669806486211409  0.4993451660958961   T   T   T
  0.8348424392378962  0.6670485203363617  0.4993304877045617   T   T   T
  0.1680437350662063  0.3337193676430462  0.4703337434886222   T   T   T
  0.1678951603184920  0.8336237681660719  0.4704731959977188   T   T   T
  0.6679203749118497  0.3336593496349213  0.4704690490997246   T   T   T
  0.6678791230449075  0.8336369256100923  0.4704724382889924   T   T   T
  0.0007130167890198  0.0004530754871334  0.3585485610829084   T   T   T
  0.0007577363110044  0.4999133735494807  0.3585285185507988   T   T   T
  0.5008868638340920  0.0002365466662304  0.3585051625399326   T   T   T
  0.5006198747694823  0.5001624387350578  0.3586017509592718   T   T   T
  0.3347085223578246  0.1665575947464705  0.5830554823256255   T   T   T
  0.3348319533083564  0.6672097977685689  0.5831363274619917   T   T   T
  0.8353284413318357  0.1672565874463623  0.5832760683414401   T   T   T
  0.8358811462610088  0.6674735304895213  0.5831972872867209   T   T   T
  0.0013127098365553  0.0005300150961939  0.5282146155974208   T   T   T
  0.0014623189223042  0.5000744415870234  0.5282570165858423   T   T   T
  0.5016103552631382  0.0003957161479689  0.5283075133783469   T   T   T
  0.5017694056786071  0.5005347210759667  0.5282604942953805   T   T   T
  0.3343673886003786  0.1665679191353794  0.4154510802306036   T   T   T
  0.3343116773044452  0.6673190665571787  0.4154745297543850   T   T   T
  0.8339232464235463  0.1667747180140300  0.4155417262250531   T   T   T
  0.8344450514233638  0.6669724971157767  0.4154811884194339   T   T   T
  0.1701717452410005  0.3342424248161191  0.6398219296505945   T   T   T
  0.1688320304894323  0.8338404165933765  0.6402650120396950   T   T   T
  0.6679581938154253  0.3337602687532696  0.6399386586056194   T   T   T
  0.6684519894651605  0.8337903696718049  0.6400990977532348   T   T   T
  0.0125192335037102  0.2800074587332040  0.7742993220264274   T   T   T
 -0.0635603540626919  0.2626612490443375  0.7385662333833125   T   T   T
 
  0.00000000E+00  0.00000000E+00  0.00000000E+00
  0.00000000E+00  0.00000000E+00  0.00000000E+00
  0.00000000E+00  0.00000000E+00  0.00000000E+00
  0.00000000E+00  0.00000000E+00  0.00000000E+00
  0.00000000E+00  0.00000000E+00  0.00000000E+00
  0.00000000E+00  0.00000000E+00  0.00000000E+00
  0.00000000E+00  0.00000000E+00  0.00000000E+00
  0.00000000E+00  0.00000000E+00  0.00000000E+00
  0.00000000E+00  0.00000000E+00  0.00000000E+00
  0.00000000E+00  0.00000000E+00  0.00000000E+00
  0.00000000E+00  0.00000000E+00  0.00000000E+00
  0.00000000E+00  0.00000000E+00  0.00000000E+00
  0.00000000E+00  0.00000000E+00  0.00000000E+00
  0.00000000E+00  0.00000000E+00  0.00000000E+00
  0.00000000E+00  0.00000000E+00  0.00000000E+00
  0.00000000E+00  0.00000000E+00  0.00000000E+00
  0.00000000E+00  0.00000000E+00  0.00000000E+00
  0.00000000E+00  0.00000000E+00  0.00000000E+00
  0.00000000E+00  0.00000000E+00  0.00000000E+00
  0.00000000E+00  0.00000000E+00  0.00000000E+00
  0.00000000E+00  0.00000000E+00  0.00000000E+00
  0.00000000E+00  0.00000000E+00  0.00000000E+00
  0.00000000E+00  0.00000000E+00  0.00000000E+00
  0.00000000E+00  0.00000000E+00  0.00000000E+00
  0.00000000E+00  0.00000000E+00  0.00000000E+00
  0.00000000E+00  0.00000000E+00  0.00000000E+00
  0.00000000E+00  0.00000000E+00  0.00000000E+00
  0.00000000E+00  0.00000000E+00  0.00000000E+00
  0.00000000E+00  0.00000000E+00  0.00000000E+00
  0.00000000E+00  0.00000000E+00  0.00000000E+00
  0.00000000E+00  0.00000000E+00  0.00000000E+00
  0.00000000E+00  0.00000000E+00  0.00000000E+00
  0.00000000E+00  0.00000000E+00  0.00000000E+00
  0.00000000E+00  0.00000000E+00  0.00000000E+00
  0.00000000E+00  0.00000000E+00  0.00000000E+00
  0.00000000E+00  0.00000000E+00  0.00000000E+00
  0.00000000E+00  0.00000000E+00  0.00000000E+00
  0.00000000E+00  0.00000000E+00  0.00000000E+00
