Ce12 C1 O25                             
   1.00000000000000     
     7.7074639999999999    0.0000000000000000    0.0000000000000000
    -3.8537319999999999    6.6748599999999998    0.0000000000000000
     0.0000000000000000    0.0000000000000000   28.3190309999999990
   Ce   O    C    O 
    12    24     1     1
Selective dynamics
Direct
  0.1664006608858539  0.3358615877742945  0.3880181259244546   T   T   T
  0.1663970537102096  0.8359985275227880  0.3879789629069870   T   T   T
  0.6664896183006380  0.3359680680813047  0.3881147598114050   T   T   T
  0.6665923411234025  0.8359997756418163  0.3879553794107647   T   T   T
  0.0003005201899857  0.0028686536905839  0.6142704651107235   T   T   T
  0.0007674695697731  0.5041661521013087  0.6127882864741517   T   T   T
  0.5003204435238420  0.0035196955585324  0.6128902085376927   T   T   T
  0.5008026630556847  0.5041122281712721  0.6128461376460279   T   T   T
  0.3327529224606816  0.1692810261316749  0.5006800661139142   T   T   T
  0.3334155185649026  0.6697586023960206  0.5004508959863411   T   T   T
  0.8336231535525309  0.1693979849796948  0.5007009325777740   T   T   T
  0.8333100907832122  0.6699056768406541  0.5006195049499936   T   T   T
  0.1667393607512763  0.3366737221096969  0.4718399084144833   T   T   T
  0.1670988165902015  0.8358773592284883  0.4716996120425838   T   T   T
  0.6666762240393440  0.3362033689295179  0.4715601708132986   T   T   T
  0.6658418117078149  0.8358880297542534  0.4716957910656515   T   T   T
 -0.0002961213686649  0.0024759949486476  0.3595442960063460   T   T   T
 -0.0004531973854680  0.5023908239022907  0.3597348498829422   T   T   T
  0.4997948676833587  0.0027435050276250  0.3598608487005741   T   T   T
  0.4996508278355261  0.5023144284777229  0.3597583789079927   T   T   T
  0.3322566541837201  0.1696974505571311  0.5848363393185541   T   T   T
  0.3339038454912562  0.6702475315505863  0.5838822434257755   T   T   T
  0.8351340573593827  0.1696479596468736  0.5848259181555099   T   T   T
  0.8337889383287398  0.6712190041058959  0.5847567071897439   T   T   T
 -0.0000759293278310  0.0025578576210920  0.5292589932357968   T   T   T
 -0.0008254997470090  0.5030017843886234  0.5294824622795310   T   T   T
  0.5008921001044921  0.0044351925855945  0.5294882907388205   T   T   T
  0.5004640706171751  0.5025490921690887  0.5294490534482889   T   T   T
  0.3325978529950243  0.1690732953750561  0.4167493114541107   T   T   T
  0.3330981021124216  0.6691433074892713  0.4165771385299784   T   T   T
  0.8334936126449484  0.1690751548583684  0.4167017800703139   T   T   T
  0.8333055133073825  0.6697025528153724  0.4167530725075000   T   T   T
  0.1694562754475355  0.3418630909110566  0.6419609873342408   T   T   T
  0.1681412391605935  0.8350908019521158  0.6414253511395195   T   T   T
  0.6672781034638740  0.3367714133318755  0.6413933613992685   T   T   T
  0.6629609648720161  0.8349979504222192  0.6414976044318562   T   T   T
 -0.0015272886488648  0.0758281953572594  0.7152753695461092   T   T   T
 -0.0005676579389580  0.1470271535943254  0.7507944345109769   T   T   T
 
  0.00000000E+00  0.00000000E+00  0.00000000E+00
  0.00000000E+00  0.00000000E+00  0.00000000E+00
  0.00000000E+00  0.00000000E+00  0.00000000E+00
  0.00000000E+00  0.00000000E+00  0.00000000E+00
  0.00000000E+00  0.00000000E+00  0.00000000E+00
  0.00000000E+00  0.00000000E+00  0.00000000E+00
  0.00000000E+00  0.00000000E+00  0.00000000E+00
  0.00000000E+00  0.00000000E+00  0.00000000E+00
  0.00000000E+00  0.00000000E+00  0.00000000E+00
  0.00000000E+00  0.00000000E+00  0.00000000E+00
  0.00000000E+00  0.00000000E+00  0.00000000E+00
  0.00000000E+00  0.00000000E+00  0.00000000E+00
  0.00000000E+00  0.00000000E+00  0.00000000E+00
  0.00000000E+00  0.00000000E+00  0.00000000E+00
  0.00000000E+00  0.00000000E+00  0.00000000E+00
  0.00000000E+00  0.00000000E+00  0.00000000E+00
  0.00000000E+00  0.00000000E+00  0.00000000E+00
  0.00000000E+00  0.00000000E+00  0.00000000E+00
  0.00000000E+00  0.00000000E+00  0.00000000E+00
  0.00000000E+00  0.00000000E+00  0.00000000E+00
  0.00000000E+00  0.00000000E+00  0.00000000E+00
  0.00000000E+00  0.00000000E+00  0.00000000E+00
  0.00000000E+00  0.00000000E+00  0.00000000E+00
  0.00000000E+00  0.00000000E+00  0.00000000E+00
  0.00000000E+00  0.00000000E+00  0.00000000E+00
  0.00000000E+00  0.00000000E+00  0.00000000E+00
  0.00000000E+00  0.00000000E+00  0.00000000E+00
  0.00000000E+00  0.00000000E+00  0.00000000E+00
  0.00000000E+00  0.00000000E+00  0.00000000E+00
  0.00000000E+00  0.00000000E+00  0.00000000E+00
  0.00000000E+00  0.00000000E+00  0.00000000E+00
  0.00000000E+00  0.00000000E+00  0.00000000E+00
  0.00000000E+00  0.00000000E+00  0.00000000E+00
  0.00000000E+00  0.00000000E+00  0.00000000E+00
  0.00000000E+00  0.00000000E+00  0.00000000E+00
  0.00000000E+00  0.00000000E+00  0.00000000E+00
  0.00000000E+00  0.00000000E+00  0.00000000E+00
  0.00000000E+00  0.00000000E+00  0.00000000E+00
