Ce12 C1 O25                             
   1.00000000000000     
     7.7074639999999999    0.0000000000000000    0.0000000000000000
    -3.8537319999999999    6.6748599999999998    0.0000000000000000
     0.0000000000000000    0.0000000000000000   28.3190309999999990
   Ce   O    C    O 
    12    24     1     1
Selective dynamics
Direct
  0.1653665370655315  0.3322554453681360  0.3867918971736455   T   T   T
  0.1652762726126813  0.8321750834899414  0.3867807716099527   T   T   T
  0.6654613265279933  0.3323405362034650  0.3867997078916920   T   T   T
  0.6654381890043615  0.8321981087884653  0.3869274911787700   T   T   T
  0.0002873807135198 -0.0014960011298257  0.6116579761371066   T   T   T
 -0.0005457370904147  0.4984634314556016  0.6130491972235373   T   T   T
  0.5000269889130702 -0.0013136594662685  0.6116878332564560   T   T   T
  0.5001211999848281  0.4982141957891227  0.6116230798482203   T   T   T
  0.3326126525372691  0.1652870296420657  0.4992311408893380   T   T   T
  0.3319618830503399  0.6650594211501278  0.4994510077611650   T   T   T
  0.8328139599881570  0.1657998924848940  0.4994099497478924   T   T   T
  0.8328148261842202  0.6652018171878252  0.4994247984785478   T   T   T
  0.1660512700949407  0.3319480635919780  0.4705102833751446   T   T   T
  0.1661859110674885  0.8326186145415241  0.4704270360607868   T   T   T
  0.6651732845002607  0.3317263982965392  0.4703870690824886   T   T   T
  0.6656863889580503  0.8320504606765439  0.4703298390731651   T   T   T
 -0.0015996130416843 -0.0013465972894658  0.3584577193022873   T   T   T
 -0.0016032329136783  0.4989520377015149  0.3583644031455779   T   T   T
  0.4988378817176446 -0.0010072930583118  0.3586546861041840   T   T   T
  0.4990614053795273  0.4991698147669675  0.3584977923231469   T   T   T
  0.3336983272851243  0.1650532621429249  0.5825654581674347   T   T   T
  0.3309508603835067  0.6640793425845634  0.5835955559242061   T   T   T
  0.8340877869843700  0.1667195195745558  0.5835617658289505   T   T   T
  0.8340468700570184  0.6647513789284551  0.5835168179417813   T   T   T
 -0.0013853099969786 -0.0016965890764495  0.5282649335442469   T   T   T
 -0.0010651737570653  0.4986588328793916  0.5280457471017314   T   T   T
  0.5001066297880840 -0.0020206759881630  0.5282609665301808   T   T   T
  0.4999220730219417  0.4996077879289670  0.5282986836189113   T   T   T
  0.3318339703713611  0.1655918397463289  0.4153529776379874   T   T   T
  0.3314894383189390  0.6649767773795863  0.4154636081883142   T   T   T
  0.8327241752174239  0.1660733667824454  0.4154990615498500   T   T   T
  0.8324203977807598  0.6654454744965975  0.4155628719753510   T   T   T
  0.1693114782107004  0.3290597464240423  0.6404389932268644   T   T   T
  0.1687722597289263  0.8362211641203044  0.6403626703408269   T   T   T
  0.6643115943800714  0.3307538386682576  0.6403269752189645   T   T   T
  0.6661928186469274  0.8314833573399053  0.6401834552869800   T   T   T
  0.0585294884002553  0.5158108647498062  0.7159328750530004   T   T   T
  0.1127915399245275  0.5311339111276407  0.7540929032013068   T   T   T
 
  0.00000000E+00  0.00000000E+00  0.00000000E+00
  0.00000000E+00  0.00000000E+00  0.00000000E+00
  0.00000000E+00  0.00000000E+00  0.00000000E+00
  0.00000000E+00  0.00000000E+00  0.00000000E+00
  0.00000000E+00  0.00000000E+00  0.00000000E+00
  0.00000000E+00  0.00000000E+00  0.00000000E+00
  0.00000000E+00  0.00000000E+00  0.00000000E+00
  0.00000000E+00  0.00000000E+00  0.00000000E+00
  0.00000000E+00  0.00000000E+00  0.00000000E+00
  0.00000000E+00  0.00000000E+00  0.00000000E+00
  0.00000000E+00  0.00000000E+00  0.00000000E+00
  0.00000000E+00  0.00000000E+00  0.00000000E+00
  0.00000000E+00  0.00000000E+00  0.00000000E+00
  0.00000000E+00  0.00000000E+00  0.00000000E+00
  0.00000000E+00  0.00000000E+00  0.00000000E+00
  0.00000000E+00  0.00000000E+00  0.00000000E+00
  0.00000000E+00  0.00000000E+00  0.00000000E+00
  0.00000000E+00  0.00000000E+00  0.00000000E+00
  0.00000000E+00  0.00000000E+00  0.00000000E+00
  0.00000000E+00  0.00000000E+00  0.00000000E+00
  0.00000000E+00  0.00000000E+00  0.00000000E+00
  0.00000000E+00  0.00000000E+00  0.00000000E+00
  0.00000000E+00  0.00000000E+00  0.00000000E+00
  0.00000000E+00  0.00000000E+00  0.00000000E+00
  0.00000000E+00  0.00000000E+00  0.00000000E+00
  0.00000000E+00  0.00000000E+00  0.00000000E+00
  0.00000000E+00  0.00000000E+00  0.00000000E+00
  0.00000000E+00  0.00000000E+00  0.00000000E+00
  0.00000000E+00  0.00000000E+00  0.00000000E+00
  0.00000000E+00  0.00000000E+00  0.00000000E+00
  0.00000000E+00  0.00000000E+00  0.00000000E+00
  0.00000000E+00  0.00000000E+00  0.00000000E+00
  0.00000000E+00  0.00000000E+00  0.00000000E+00
  0.00000000E+00  0.00000000E+00  0.00000000E+00
  0.00000000E+00  0.00000000E+00  0.00000000E+00
  0.00000000E+00  0.00000000E+00  0.00000000E+00
  0.00000000E+00  0.00000000E+00  0.00000000E+00
  0.00000000E+00  0.00000000E+00  0.00000000E+00
