Ce12 C1 O25                             
   1.00000000000000     
     7.7074639999999999    0.0000000000000000    0.0000000000000000
    -3.8537319999999999    6.6748599999999998    0.0000000000000000
     0.0000000000000000    0.0000000000000000   28.3190309999999990
   Ce   O    C    O 
    12    24     1     1
Selective dynamics
Direct
  0.1666808821046061  0.3333607642092218  0.3876794102035412   T   T   T
  0.1666808821046061  0.8333191178953937  0.3876794102035412   T   T   T
  0.6666669999999968  0.3333330000000032  0.3878740972033076   T   T   T
  0.6666392357907784  0.8333191178953937  0.3876794102035412   T   T   T
  0.0000000000000000  0.0000000000000000  0.6142184658296939   T   T   T
  0.0003550975608520  0.5001775487804256  0.6126129240507941   T   T   T
  0.4998224512195737 -0.0003550975608520  0.6126129240507941   T   T   T
  0.4998224512195737  0.5001775487804256  0.6126129240507941   T   T   T
  0.3327306447486760  0.1663658223743332  0.5003482388610840   T   T   T
  0.3333330000000032  0.6666669999999968  0.5000962230272085   T   T   T
  0.8336341776256667  0.1663658223743332  0.5003482388610840   T   T   T
  0.8336341776256667  0.6672693552513238  0.5003482388610840   T   T   T
  0.1670504484970411  0.3340998969940919  0.4714071467827335   T   T   T
  0.1670504484970411  0.8329495515029594  0.4714071467827335   T   T   T
  0.6666669999999968  0.3333330000000032  0.4712844483726742   T   T   T
  0.6659001030059082  0.8329495515029594  0.4714071467827335   T   T   T
  0.0000000000000000  0.0000000000000000  0.3593008007374286   T   T   T
 -0.0004081277086726  0.4997959361456635  0.3594342552426569   T   T   T
  0.5002040638543367  0.0004081277086726  0.3594342552426569   T   T   T
  0.5002040638543367  0.4997959361456635  0.3594342552426569   T   T   T
  0.3315366432932556  0.1657688216466230  0.5845652900951999   T   T   T
  0.3333330000000032  0.6666669999999968  0.5834956816616509   T   T   T
  0.8342311783533771  0.1657688216466230  0.5845652900951999   T   T   T
  0.8342311783533771  0.6684633567067449  0.5845652900951999   T   T   T
  0.0000000000000000  0.0000000000000000  0.5288842787322919   T   T   T
 -0.0011517045616895  0.4994241477191553  0.5292111152866790   T   T   T
  0.5005758522808446  0.0011517045616895  0.5292111152866790   T   T   T
  0.5005758522808446  0.4994241477191553  0.5292111152866790   T   T   T
  0.3326609449397878  0.1663309724698891  0.4164371251032015   T   T   T
  0.3333330000000032  0.6666669999999968  0.4161681837308854   T   T   T
  0.8336690275301110  0.1663309724698891  0.4164371251032015   T   T   T
  0.8336690275301110  0.6673390550602121  0.4164371251032015   T   T   T
  0.1686833274535508  0.3373656549071112  0.6414095807674889   T   T   T
  0.1686833274535508  0.8313166725464491  0.6414095807674889   T   T   T
  0.6666669999999968  0.3333330000000032  0.6410605127200270   T   T   T
  0.6626343450928887  0.8313166725464491  0.6414095807674889   T   T   T
  0.0000000000000000  0.0000000000000000  0.7180291149531585   T   T   T
  0.0000000000000000  0.0000000000000000  0.7583889338515359   T   T   T
 
  0.00000000E+00  0.00000000E+00  0.00000000E+00
  0.00000000E+00  0.00000000E+00  0.00000000E+00
  0.00000000E+00  0.00000000E+00  0.00000000E+00
  0.00000000E+00  0.00000000E+00  0.00000000E+00
  0.00000000E+00  0.00000000E+00  0.00000000E+00
  0.00000000E+00  0.00000000E+00  0.00000000E+00
  0.00000000E+00  0.00000000E+00  0.00000000E+00
  0.00000000E+00  0.00000000E+00  0.00000000E+00
  0.00000000E+00  0.00000000E+00  0.00000000E+00
  0.00000000E+00  0.00000000E+00  0.00000000E+00
  0.00000000E+00  0.00000000E+00  0.00000000E+00
  0.00000000E+00  0.00000000E+00  0.00000000E+00
  0.00000000E+00  0.00000000E+00  0.00000000E+00
  0.00000000E+00  0.00000000E+00  0.00000000E+00
  0.00000000E+00  0.00000000E+00  0.00000000E+00
  0.00000000E+00  0.00000000E+00  0.00000000E+00
  0.00000000E+00  0.00000000E+00  0.00000000E+00
  0.00000000E+00  0.00000000E+00  0.00000000E+00
  0.00000000E+00  0.00000000E+00  0.00000000E+00
  0.00000000E+00  0.00000000E+00  0.00000000E+00
  0.00000000E+00  0.00000000E+00  0.00000000E+00
  0.00000000E+00  0.00000000E+00  0.00000000E+00
  0.00000000E+00  0.00000000E+00  0.00000000E+00
  0.00000000E+00  0.00000000E+00  0.00000000E+00
  0.00000000E+00  0.00000000E+00  0.00000000E+00
  0.00000000E+00  0.00000000E+00  0.00000000E+00
  0.00000000E+00  0.00000000E+00  0.00000000E+00
  0.00000000E+00  0.00000000E+00  0.00000000E+00
  0.00000000E+00  0.00000000E+00  0.00000000E+00
  0.00000000E+00  0.00000000E+00  0.00000000E+00
  0.00000000E+00  0.00000000E+00  0.00000000E+00
  0.00000000E+00  0.00000000E+00  0.00000000E+00
  0.00000000E+00  0.00000000E+00  0.00000000E+00
  0.00000000E+00  0.00000000E+00  0.00000000E+00
  0.00000000E+00  0.00000000E+00  0.00000000E+00
  0.00000000E+00  0.00000000E+00  0.00000000E+00
  0.00000000E+00  0.00000000E+00  0.00000000E+00
  0.00000000E+00  0.00000000E+00  0.00000000E+00
