C1 O25 Ce12
1
 7.707464  0.000000  0.000000
-3.853732  6.674860  0.000000
 0.000000  0.000000 28.319031
Ce O C O
12 24 1 1
Selective Dynamics
Direct
 0.166667  0.333333  0.388889	T   T   T
 0.166667  0.833333  0.388889	T   T   T
 0.666667  0.333333  0.388889	T   T   T
 0.666667  0.833333  0.388889	T   T   T
 0.000000  0.000000  0.611111	T   T   T
 1.000000  0.500000  0.611111	T   T   T
 0.500000  0.000000  0.611111	T   T   T
 0.500000  0.500000  0.611111	T   T   T
 0.333333  0.166667  0.500000	T   T   T
 0.333333  0.666667  0.500000	T   T   T
 0.833333  0.166667  0.500000	T   T   T
 0.833333  0.666667  0.500000	T   T   T
 0.166667  0.333333  0.472222	T   T   T
 0.166667  0.833333  0.472222	T   T   T
 0.666667  0.333333  0.472222	T   T   T
 0.666667  0.833333  0.472222	T   T   T
 1.000000  0.000000  0.361111	T   T   T
 0.000000  0.500000  0.361111	T   T   T
 0.500000  0.000000  0.361111	T   T   T
 0.500000  0.500000  0.361111	T   T   T
 0.333333  0.166667  0.583333	T   T   T
 0.333333  0.666667  0.583333	T   T   T
 0.833333  0.166667  0.583333	T   T   T
 0.833333  0.666667  0.583333	T   T   T
 0.000000  0.000000  0.527778	T   T   T
 0.000000  0.500000  0.527778	T   T   T
 0.500000  0.000000  0.527778	T   T   T
 0.500000  0.500000  0.527778	T   T   T
 0.333333  0.166667  0.416667	T   T   T
 0.333333  0.666667  0.416667	T   T   T
 0.833333  0.166667  0.416667	T   T   T
 0.833333  0.666667  0.416667	T   T   T
 0.166667  0.333333  0.638889	T   T   T
 0.166667  0.833333  0.638889	T   T   T
 0.666667  0.333333  0.638889	T   T   T
 0.666667  0.833333  0.638889	T   T   T
 0.000000  0.000000  0.723895	T   T   T
-0.000000 -0.000000  0.764221	T   T   T
