Ce12 C1 O25                             
   1.00000000000000     
     7.7074639999999999    0.0000000000000000    0.0000000000000000
    -3.8537319999999999    6.6748599999999998    0.0000000000000000
     0.0000000000000000    0.0000000000000000   28.3190309999999990
   Ce   O    C    O 
    12    24     1     1
Selective dynamics
Direct
  0.1694105366338518  0.3338177994398356  0.3868827608916282   T   T   T
  0.1694214593626834  0.8339470847628125  0.3868780711613352   T   T   T
  0.6694088993892682  0.3338225828192888  0.3870429580526242   T   T   T
  0.6694623090694458  0.8339395942934400  0.3868714472821219   T   T   T
  0.0021926406423880  0.0003396661538637  0.6132486266366485   T   T   T
  0.0026244750609025  0.4992065051152125  0.6117680451061143   T   T   T
  0.5026343907040892 -0.0007357082203553  0.6118361120512218   T   T   T
  0.5024815586200361  0.4998065454825844  0.6117925998044638   T   T   T
  0.3352091982244148  0.1664064441854334  0.4995217771480023   T   T   T
  0.3358273185739115  0.6667916636524019  0.4992798514066237   T   T   T
  0.8361859389862898  0.1666115887871795  0.4994154375049021   T   T   T
  0.8363132684856670  0.6674747108074491  0.4995371335775458   T   T   T
  0.1696059347746092  0.3343194083913977  0.4705561747516973   T   T   T
  0.1694143149629258  0.8331730751307387  0.4706008493152447   T   T   T
  0.6693564592016293  0.3337114969383060  0.4704450007368404   T   T   T
  0.6685818396954339  0.8331550388184553  0.4705788798915977   T   T   T
  0.0028361702675268  0.0007110749721857  0.3584688891037575   T   T   T
  0.0025784659559653  0.5003188922489269  0.3586552161942201   T   T   T
  0.5030660873223454  0.0008960981921780  0.3586107530878113   T   T   T
  0.5029144234710397  0.5004390446189797  0.3586503539027500   T   T   T
  0.3336758941218539  0.1647207590594607  0.5838240807684558   T   T   T
  0.3361608705005873  0.6665335672688063  0.5826994586971986   T   T   T
  0.8361780979072485  0.1653154905044772  0.5836371531944949   T   T   T
  0.8372933170603002  0.6687905350533458  0.5837262242872666   T   T   T
  0.0025805095253160  0.0004219323847489  0.5281641687542321   T   T   T
  0.0015766926741613  0.4994034098148692  0.5284272972787005   T   T   T
  0.5030817845951882  0.0011016289351540  0.5283620727005549   T   T   T
  0.5029495528436726  0.4991672033420255  0.5285203349739660   T   T   T
  0.3354824800814644  0.1666175265650541  0.4156795423684303   T   T   T
  0.3359628334495085  0.6673568528291514  0.4154619343176750   T   T   T
  0.8362068866654341  0.1668056765622573  0.4156534000739966   T   T   T
  0.8364532627221513  0.6677413733717307  0.4156185097792564   T   T   T
  0.1705474674540737  0.3361749733046307  0.6402677547020232   T   T   T
  0.1718559789015572  0.8294722388324095  0.6407660995011765   T   T   T
  0.6691274840575513  0.3333134852421941  0.6402512492241506   T   T   T
  0.6656732769174415  0.8310506588958440  0.6405530011637394   T   T   T
  0.0170976073231758 -0.0570224996050498  0.7145285986450437   T   T   T
  0.0252473137948894  0.8837925810485789  0.7510081819624855   T   T   T
 
  0.00000000E+00  0.00000000E+00  0.00000000E+00
  0.00000000E+00  0.00000000E+00  0.00000000E+00
  0.00000000E+00  0.00000000E+00  0.00000000E+00
  0.00000000E+00  0.00000000E+00  0.00000000E+00
  0.00000000E+00  0.00000000E+00  0.00000000E+00
  0.00000000E+00  0.00000000E+00  0.00000000E+00
  0.00000000E+00  0.00000000E+00  0.00000000E+00
  0.00000000E+00  0.00000000E+00  0.00000000E+00
  0.00000000E+00  0.00000000E+00  0.00000000E+00
  0.00000000E+00  0.00000000E+00  0.00000000E+00
  0.00000000E+00  0.00000000E+00  0.00000000E+00
  0.00000000E+00  0.00000000E+00  0.00000000E+00
  0.00000000E+00  0.00000000E+00  0.00000000E+00
  0.00000000E+00  0.00000000E+00  0.00000000E+00
  0.00000000E+00  0.00000000E+00  0.00000000E+00
  0.00000000E+00  0.00000000E+00  0.00000000E+00
  0.00000000E+00  0.00000000E+00  0.00000000E+00
  0.00000000E+00  0.00000000E+00  0.00000000E+00
  0.00000000E+00  0.00000000E+00  0.00000000E+00
  0.00000000E+00  0.00000000E+00  0.00000000E+00
  0.00000000E+00  0.00000000E+00  0.00000000E+00
  0.00000000E+00  0.00000000E+00  0.00000000E+00
  0.00000000E+00  0.00000000E+00  0.00000000E+00
  0.00000000E+00  0.00000000E+00  0.00000000E+00
  0.00000000E+00  0.00000000E+00  0.00000000E+00
  0.00000000E+00  0.00000000E+00  0.00000000E+00
  0.00000000E+00  0.00000000E+00  0.00000000E+00
  0.00000000E+00  0.00000000E+00  0.00000000E+00
  0.00000000E+00  0.00000000E+00  0.00000000E+00
  0.00000000E+00  0.00000000E+00  0.00000000E+00
  0.00000000E+00  0.00000000E+00  0.00000000E+00
  0.00000000E+00  0.00000000E+00  0.00000000E+00
  0.00000000E+00  0.00000000E+00  0.00000000E+00
  0.00000000E+00  0.00000000E+00  0.00000000E+00
  0.00000000E+00  0.00000000E+00  0.00000000E+00
  0.00000000E+00  0.00000000E+00  0.00000000E+00
  0.00000000E+00  0.00000000E+00  0.00000000E+00
  0.00000000E+00  0.00000000E+00  0.00000000E+00
