Ce12 C1 O25                             
   1.00000000000000     
     7.7074639999999999    0.0000000000000000    0.0000000000000000
    -3.8537319999999999    6.6748599999999998    0.0000000000000000
     0.0000000000000000    0.0000000000000000   28.3190309999999990
   Ce   O    C    O 
    12    24     1     1
Selective dynamics
Direct
  0.1658738299048535  0.3348758037268366  0.3881487823258281   T   T   T
  0.1659789398191317  0.8350072001331166  0.3879701495303987   T   T   T
  0.6657459710609216  0.3347524437721883  0.3879404897450683   T   T   T
  0.6658441828239201  0.8349471465532473  0.3879730430395119   T   T   T
 -0.0015359326087785  0.0018606276594076  0.6129066047376123   T   T   T
 -0.0011694934066782  0.5023895882363549  0.6129186178864466   T   T   T
  0.4990978771935373  0.0016536992908078  0.6143000233640559   T   T   T
  0.4990607391888579  0.5025984664478794  0.6128837178864257   T   T   T
  0.3327434175296287  0.1681420893577655  0.5006774450140485   T   T   T
  0.3326634084489673  0.6689362329553161  0.5006058253460277   T   T   T
  0.8319555666463474  0.1682423247111442  0.5006221192568714   T   T   T
  0.8324107304359024  0.6684067935844984  0.5004174546475757   T   T   T
  0.1658093735491038  0.3349732168121257  0.4715910609176142   T   T   T
  0.1652814961304387  0.8348385020188546  0.4716803749075020   T   T   T
  0.6660233109786917  0.3355426618475875  0.4716598625753986   T   T   T
  0.6661717488787476  0.8347184529135319  0.4716677591350043   T   T   T
 -0.0006775707452148  0.0017506521895212  0.3597226866654174   T   T   T
 -0.0007022181805235  0.5013877485197000  0.3596670403685506   T   T   T
  0.4991715487805556  0.0015374459686526  0.3595348334951661   T   T   T
  0.4989190359076487  0.5013498334895553  0.3596831159676935   T   T   T
  0.3336753826928357  0.1676704946797306  0.5848886498045145   T   T   T
  0.3328024111229270  0.6702576367684585  0.5848177059847144   T   T   T
  0.8305269484426921  0.1682395531982862  0.5848419675770340   T   T   T
  0.8320024454263842  0.6687430669483757  0.5838095974383849   T   T   T
 -0.0003534163881416  0.0029861374195852  0.5295980327648507   T   T   T
 -0.0004305376363916  0.5013544906847976  0.5295577928121976   T   T   T
  0.4991725039849154  0.0017311276424795  0.5292633156829121   T   T   T
  0.4978668017402282  0.5012131834938719  0.5295471216453279   T   T   T
  0.3327378042725754  0.1679633717879887  0.4167595556492090   T   T   T
  0.3328430789842782  0.6687919014245720  0.4167218426425517   T   T   T
  0.8319939873608518  0.1679327345006890  0.4167235661131545   T   T   T
  0.8325207010440608  0.6681963381359652  0.4165017534597051   T   T   T
  0.1657300952977531  0.3350231680521007  0.6414141181280008   T   T   T
  0.1603669314405759  0.8328389772375417  0.6416238225553633   T   T   T
  0.6686272662190124  0.3413359980839327  0.6417732598042470   T   T   T
  0.6667475908618420  0.8341838750802052  0.6415319134875473   T   T   T
  0.4738621085789362  0.0526567030242328  0.7150042542786196   T   T   T
  0.4495299342185987  0.1031923116490986  0.7511667233594482   T   T   T
 
  0.00000000E+00  0.00000000E+00  0.00000000E+00
  0.00000000E+00  0.00000000E+00  0.00000000E+00
  0.00000000E+00  0.00000000E+00  0.00000000E+00
  0.00000000E+00  0.00000000E+00  0.00000000E+00
  0.00000000E+00  0.00000000E+00  0.00000000E+00
  0.00000000E+00  0.00000000E+00  0.00000000E+00
  0.00000000E+00  0.00000000E+00  0.00000000E+00
  0.00000000E+00  0.00000000E+00  0.00000000E+00
  0.00000000E+00  0.00000000E+00  0.00000000E+00
  0.00000000E+00  0.00000000E+00  0.00000000E+00
  0.00000000E+00  0.00000000E+00  0.00000000E+00
  0.00000000E+00  0.00000000E+00  0.00000000E+00
  0.00000000E+00  0.00000000E+00  0.00000000E+00
  0.00000000E+00  0.00000000E+00  0.00000000E+00
  0.00000000E+00  0.00000000E+00  0.00000000E+00
  0.00000000E+00  0.00000000E+00  0.00000000E+00
  0.00000000E+00  0.00000000E+00  0.00000000E+00
  0.00000000E+00  0.00000000E+00  0.00000000E+00
  0.00000000E+00  0.00000000E+00  0.00000000E+00
  0.00000000E+00  0.00000000E+00  0.00000000E+00
  0.00000000E+00  0.00000000E+00  0.00000000E+00
  0.00000000E+00  0.00000000E+00  0.00000000E+00
  0.00000000E+00  0.00000000E+00  0.00000000E+00
  0.00000000E+00  0.00000000E+00  0.00000000E+00
  0.00000000E+00  0.00000000E+00  0.00000000E+00
  0.00000000E+00  0.00000000E+00  0.00000000E+00
  0.00000000E+00  0.00000000E+00  0.00000000E+00
  0.00000000E+00  0.00000000E+00  0.00000000E+00
  0.00000000E+00  0.00000000E+00  0.00000000E+00
  0.00000000E+00  0.00000000E+00  0.00000000E+00
  0.00000000E+00  0.00000000E+00  0.00000000E+00
  0.00000000E+00  0.00000000E+00  0.00000000E+00
  0.00000000E+00  0.00000000E+00  0.00000000E+00
  0.00000000E+00  0.00000000E+00  0.00000000E+00
  0.00000000E+00  0.00000000E+00  0.00000000E+00
  0.00000000E+00  0.00000000E+00  0.00000000E+00
  0.00000000E+00  0.00000000E+00  0.00000000E+00
  0.00000000E+00  0.00000000E+00  0.00000000E+00
