Ce12 C1 O25                             
   1.00000000000000     
     7.7074639999999999    0.0000000000000000    0.0000000000000000
    -3.8537319999999999    6.6748599999999998    0.0000000000000000
     0.0000000000000000    0.0000000000000000   28.3190309999999990
   Ce   O    C    O 
    12    24     1     1
Selective dynamics
Direct
  0.1667787784323752  0.3344749811424719  0.3871754069253512   T   T   T
  0.1668522195209899  0.8346932354811787  0.3869959921716875   T   T   T
  0.6666901134128763  0.3345079473853437  0.3870867415642489   T   T   T
  0.6666576547147713  0.8345944689585416  0.3870022014641966   T   T   T
 -0.0007590178289868  0.0013216429781376  0.6118034304388283   T   T   T
 -0.0004092819536311  0.5016735825801398  0.6118324250316324   T   T   T
  0.4999327107801047  0.0010887931149365  0.6132489770225769   T   T   T
  0.4998076067760828  0.5018452112978985  0.6117539890896508   T   T   T
  0.3334658631363559  0.1674390040508937  0.4996676348240700   T   T   T
  0.3332496782881191  0.6682373799811856  0.4995642639800775   T   T   T
  0.8325320961671476  0.1675035283856759  0.4995944634430559   T   T   T
  0.8331654934144627  0.6679567521787230  0.4993901273136153   T   T   T
  0.1664963012927191  0.3344177692827915  0.4704861955527228   T   T   T
  0.1658862513154064  0.8341719207936340  0.4706395174960284   T   T   T
  0.6668216889830210  0.3350542195934297  0.4707570768585704   T   T   T
  0.6667653791227325  0.8341583030092324  0.4705941215873192   T   T   T
  0.0004020946856037  0.0016216888450020  0.3588071263922644   T   T   T
  0.0000833014456073  0.5012244346527167  0.3588911178845416   T   T   T
  0.5001477819512939  0.0014093646687295  0.3586851867844898   T   T   T
  0.4999208862717501  0.5011366868258201  0.3588161550356097   T   T   T
  0.3340352567823287  0.1667788674851056  0.5837404797795090   T   T   T
  0.3331164057116620  0.6694124343816681  0.5838398536015080   T   T   T
  0.8312672719013576  0.1675821355652995  0.5837654464002480   T   T   T
  0.8333239312187953  0.6686393608781169  0.5826769879919577   T   T   T
  0.0003406437134339  0.0026206413623355  0.5284120695797501   T   T   T
  0.0003535669483938  0.5006981053653878  0.5284502708585721   T   T   T
  0.4996866355009386  0.0005504839010194  0.5282663007976650   T   T   T
  0.4984627996582464  0.5008368103792475  0.5285180897935873   T   T   T
  0.3338431462691913  0.1677445107473221  0.4158165136633720   T   T   T
  0.3336066148734383  0.6683382187744559  0.4157369735895373   T   T   T
  0.8327669583752422  0.1676210650989310  0.4157575177947515   T   T   T
  0.8331990601850137  0.6678621504357575  0.4156054971661094   T   T   T
  0.1663479455118193  0.3342555757215351  0.6402941363446386   T   T   T
  0.1616038461676298  0.8326874526169799  0.6407223142898485   T   T   T
  0.6685154582736935  0.3404593713772125  0.6404725690860357   T   T   T
  0.6672830264228203  0.8333469190640137  0.6403692793121170   T   T   T
  0.4577331492135969  0.0428832298286440  0.7135390579820647   T   T   T
  0.4133496833435969  0.0802417518104871  0.7490144911081885   T   T   T
 
  0.00000000E+00  0.00000000E+00  0.00000000E+00
  0.00000000E+00  0.00000000E+00  0.00000000E+00
  0.00000000E+00  0.00000000E+00  0.00000000E+00
  0.00000000E+00  0.00000000E+00  0.00000000E+00
  0.00000000E+00  0.00000000E+00  0.00000000E+00
  0.00000000E+00  0.00000000E+00  0.00000000E+00
  0.00000000E+00  0.00000000E+00  0.00000000E+00
  0.00000000E+00  0.00000000E+00  0.00000000E+00
  0.00000000E+00  0.00000000E+00  0.00000000E+00
  0.00000000E+00  0.00000000E+00  0.00000000E+00
  0.00000000E+00  0.00000000E+00  0.00000000E+00
  0.00000000E+00  0.00000000E+00  0.00000000E+00
  0.00000000E+00  0.00000000E+00  0.00000000E+00
  0.00000000E+00  0.00000000E+00  0.00000000E+00
  0.00000000E+00  0.00000000E+00  0.00000000E+00
  0.00000000E+00  0.00000000E+00  0.00000000E+00
  0.00000000E+00  0.00000000E+00  0.00000000E+00
  0.00000000E+00  0.00000000E+00  0.00000000E+00
  0.00000000E+00  0.00000000E+00  0.00000000E+00
  0.00000000E+00  0.00000000E+00  0.00000000E+00
  0.00000000E+00  0.00000000E+00  0.00000000E+00
  0.00000000E+00  0.00000000E+00  0.00000000E+00
  0.00000000E+00  0.00000000E+00  0.00000000E+00
  0.00000000E+00  0.00000000E+00  0.00000000E+00
  0.00000000E+00  0.00000000E+00  0.00000000E+00
  0.00000000E+00  0.00000000E+00  0.00000000E+00
  0.00000000E+00  0.00000000E+00  0.00000000E+00
  0.00000000E+00  0.00000000E+00  0.00000000E+00
  0.00000000E+00  0.00000000E+00  0.00000000E+00
  0.00000000E+00  0.00000000E+00  0.00000000E+00
  0.00000000E+00  0.00000000E+00  0.00000000E+00
  0.00000000E+00  0.00000000E+00  0.00000000E+00
  0.00000000E+00  0.00000000E+00  0.00000000E+00
  0.00000000E+00  0.00000000E+00  0.00000000E+00
  0.00000000E+00  0.00000000E+00  0.00000000E+00
  0.00000000E+00  0.00000000E+00  0.00000000E+00
  0.00000000E+00  0.00000000E+00  0.00000000E+00
  0.00000000E+00  0.00000000E+00  0.00000000E+00
