Ce12 C1 O25                             
   1.00000000000000     
     7.7074639999999999    0.0000000000000000    0.0000000000000000
    -3.8537319999999999    6.6748599999999998    0.0000000000000000
     0.0000000000000000    0.0000000000000000   28.3190309999999990
   Ce   O    C    O 
    12    24     1     1
Selective dynamics
Direct
  0.1671590871808767  0.3326306953243035  0.3871157081060681   T   T   T
  0.1672075671406615  0.8325484706550886  0.3870347594416747   T   T   T
  0.6672347300735553  0.3325852390251898  0.3870295761222102   T   T   T
  0.6671276070883563  0.8326458996924389  0.3870730434233673   T   T   T
  0.0012041780384045 -0.0012567127939721  0.6117128700031548   T   T   T
  0.0011623777804190  0.4987263851831508  0.6121146024707721   T   T   T
  0.5011176598228252 -0.0012390710034149  0.6119054999271792   T   T   T
  0.5010492846704167  0.4985992845982103  0.6117257369400381   T   T   T
  0.3342174770191120  0.1656621665183196  0.4994201530787037   T   T   T
  0.3340579672057421  0.6659157250308776  0.4995226152427956   T   T   T
  0.8339085976587685  0.1657928584311066  0.4995183499868944   T   T   T
  0.8340989427359480  0.6657605120302720  0.4995323529489843   T   T   T
  0.1672915997561459  0.3325011203047015  0.4706330050965710   T   T   T
  0.1676619175856652  0.8326349719803045  0.4705409580675509   T   T   T
  0.6672178113552090  0.3321704889967644  0.4705470573811122   T   T   T
  0.6671407874370124  0.8327281060213614  0.4705569287840543   T   T   T
  0.0005427221500906 -0.0006904717429185  0.3588955874835954   T   T   T
  0.0005405741842062  0.4992416463409272  0.3588374818265951   T   T   T
  0.5004915396954973 -0.0006971056577793  0.3587941213781002   T   T   T
  0.5004578893770432  0.4992286073324404  0.3588903875961055   T   T   T
  0.3346323379615461  0.1655884382768991  0.5829484766867251   T   T   T
  0.3340341515742405  0.6652595999657915  0.5832770664400461   T   T   T
  0.8344720598758274  0.1658264302944249  0.5832513231560131   T   T   T
  0.8343949759429289  0.6652620560608671  0.5834349715259678   T   T   T
  0.0002637939842524 -0.0015463665158594  0.5283504375194942   T   T   T
  0.0007228591844028  0.4992212107221798  0.5285046504120503   T   T   T
  0.5009774058897465 -0.0012533769243143  0.5283755877914820   T   T   T
  0.5013671270431095  0.4996315190979529  0.5283344401179825   T   T   T
  0.3339806181591062  0.1658561424904793  0.4156476060199435   T   T   T
  0.3338561262466671  0.6660049134780790  0.4157256238659668   T   T   T
  0.8337735441075191  0.1659530492725978  0.4157180528763444   T   T   T
  0.8338658938966627  0.6658973578481959  0.4158019436547508   T   T   T
  0.1683890611887644  0.3311484808344979  0.6398634415919520   T   T   T
  0.1682133367080657  0.8330738815135140  0.6400257474847539   T   T   T
  0.6673223917781543  0.3318948075786481  0.6401705124524140   T   T   T
  0.6673495079912695  0.8324511451459756  0.6401616699447154   T   T   T
  0.1180177812783126  0.4383747982791870  0.7708355352465739   T   T   T
  0.0756987092334715  0.4847550963135047  0.7362881179072970   T   T   T
 
  0.00000000E+00  0.00000000E+00  0.00000000E+00
  0.00000000E+00  0.00000000E+00  0.00000000E+00
  0.00000000E+00  0.00000000E+00  0.00000000E+00
  0.00000000E+00  0.00000000E+00  0.00000000E+00
  0.00000000E+00  0.00000000E+00  0.00000000E+00
  0.00000000E+00  0.00000000E+00  0.00000000E+00
  0.00000000E+00  0.00000000E+00  0.00000000E+00
  0.00000000E+00  0.00000000E+00  0.00000000E+00
  0.00000000E+00  0.00000000E+00  0.00000000E+00
  0.00000000E+00  0.00000000E+00  0.00000000E+00
  0.00000000E+00  0.00000000E+00  0.00000000E+00
  0.00000000E+00  0.00000000E+00  0.00000000E+00
  0.00000000E+00  0.00000000E+00  0.00000000E+00
  0.00000000E+00  0.00000000E+00  0.00000000E+00
  0.00000000E+00  0.00000000E+00  0.00000000E+00
  0.00000000E+00  0.00000000E+00  0.00000000E+00
  0.00000000E+00  0.00000000E+00  0.00000000E+00
  0.00000000E+00  0.00000000E+00  0.00000000E+00
  0.00000000E+00  0.00000000E+00  0.00000000E+00
  0.00000000E+00  0.00000000E+00  0.00000000E+00
  0.00000000E+00  0.00000000E+00  0.00000000E+00
  0.00000000E+00  0.00000000E+00  0.00000000E+00
  0.00000000E+00  0.00000000E+00  0.00000000E+00
  0.00000000E+00  0.00000000E+00  0.00000000E+00
  0.00000000E+00  0.00000000E+00  0.00000000E+00
  0.00000000E+00  0.00000000E+00  0.00000000E+00
  0.00000000E+00  0.00000000E+00  0.00000000E+00
  0.00000000E+00  0.00000000E+00  0.00000000E+00
  0.00000000E+00  0.00000000E+00  0.00000000E+00
  0.00000000E+00  0.00000000E+00  0.00000000E+00
  0.00000000E+00  0.00000000E+00  0.00000000E+00
  0.00000000E+00  0.00000000E+00  0.00000000E+00
  0.00000000E+00  0.00000000E+00  0.00000000E+00
  0.00000000E+00  0.00000000E+00  0.00000000E+00
  0.00000000E+00  0.00000000E+00  0.00000000E+00
  0.00000000E+00  0.00000000E+00  0.00000000E+00
  0.00000000E+00  0.00000000E+00  0.00000000E+00
  0.00000000E+00  0.00000000E+00  0.00000000E+00
