Ce12 C1 O25                             
   1.00000000000000     
     7.7074639999999999    0.0000000000000000    0.0000000000000000
    -3.8537319999999999    6.6748599999999998    0.0000000000000000
     0.0000000000000000    0.0000000000000000   28.3190309999999990
   Ce   O    C    O 
    12    24     1     1
Selective dynamics
Direct
  0.1673541999907684  0.3327154474727987  0.3871094015147711   T   T   T
  0.1672966578782960  0.8328374637407620  0.3871194512281100   T   T   T
  0.6672687493943114  0.3328028248066128  0.3871605681754012   T   T   T
  0.6673740910593209  0.8327654035140865  0.3871040996455843   T   T   T
  0.0014908243637420 -0.0006586712052337  0.6122690177778685   T   T   T
  0.0014382327759757  0.4993073885803135  0.6118755054039958   T   T   T
  0.5013861862391261 -0.0007443554530469  0.6119005357288360   T   T   T
  0.5013625076216106  0.4996067727339139  0.6120349405830676   T   T   T
  0.3343516631505792  0.1662665524246995  0.4996139075098087   T   T   T
  0.3343229939760858  0.6660826724513248  0.4994667935865975   T   T   T
  0.8343454868440496  0.1659910471952599  0.4995897795006205   T   T   T
  0.8341662515716299  0.6661093262179438  0.4995984222207253   T   T   T
  0.1677731826770308  0.3328376526869949  0.4707286054176318   T   T   T
  0.1674918677863111  0.8327392803698961  0.4707496817568962   T   T   T
  0.6673156891018174  0.3329823622485271  0.4707759003361070   T   T   T
  0.6675241585981424  0.8325769604793916  0.4707283809026693   T   T   T
  0.0007031446390067 -0.0005095863181107  0.3588582090305249   T   T   T
  0.0004888575877234  0.4993820618491704  0.3589682914792617   T   T   T
  0.5006569546186790 -0.0004068587410685  0.3589433856166149   T   T   T
  0.5006403139197851  0.4993707191906407  0.3589017659285288   T   T   T
  0.3343532326356147  0.1656748147862617  0.5834478469264432   T   T   T
  0.3347882130597117  0.6664433045538855  0.5829714619056029   T   T   T
  0.8346678502927426  0.1657555081280699  0.5836447181511459   T   T   T
  0.8349269393826052  0.6664034614283212  0.5834212637348172   T   T   T
  0.0010193168359624 -0.0003869299965338  0.5286084260973849   T   T   T
  0.0003404257280395  0.4986242581720396  0.5284076898164973   T   T   T
  0.5017695535813792  0.0000821701302445  0.5283761875993543   T   T   T
  0.5011668778754179  0.4994008789225608  0.5284785752959366   T   T   T
  0.3339771958660819  0.1661472044321220  0.4157861204564969   T   T   T
  0.3341479075863291  0.6660954726017618  0.4156975098085053   T   T   T
  0.8340161359004813  0.1660258646040055  0.4158912895440710   T   T   T
  0.8339369474307411  0.6661925522260035  0.4157802690730544   T   T   T
  0.1691209187067153  0.3343756258894497  0.6400543431504536   T   T   T
  0.1687232241755401  0.8317149636794371  0.6400870871512911   T   T   T
  0.6674374951927763  0.3329578837507779  0.6403437501504349   T   T   T
  0.6674439206551048  0.8321661618564734  0.6402853405751041   T   T   T
  0.1216114069234099 -0.0013758902290036  0.7693387391974442   T   T   T
  0.0640224243773591  0.0216482308192484  0.7339987380223393   T   T   T
 
  0.00000000E+00  0.00000000E+00  0.00000000E+00
  0.00000000E+00  0.00000000E+00  0.00000000E+00
  0.00000000E+00  0.00000000E+00  0.00000000E+00
  0.00000000E+00  0.00000000E+00  0.00000000E+00
  0.00000000E+00  0.00000000E+00  0.00000000E+00
  0.00000000E+00  0.00000000E+00  0.00000000E+00
  0.00000000E+00  0.00000000E+00  0.00000000E+00
  0.00000000E+00  0.00000000E+00  0.00000000E+00
  0.00000000E+00  0.00000000E+00  0.00000000E+00
  0.00000000E+00  0.00000000E+00  0.00000000E+00
  0.00000000E+00  0.00000000E+00  0.00000000E+00
  0.00000000E+00  0.00000000E+00  0.00000000E+00
  0.00000000E+00  0.00000000E+00  0.00000000E+00
  0.00000000E+00  0.00000000E+00  0.00000000E+00
  0.00000000E+00  0.00000000E+00  0.00000000E+00
  0.00000000E+00  0.00000000E+00  0.00000000E+00
  0.00000000E+00  0.00000000E+00  0.00000000E+00
  0.00000000E+00  0.00000000E+00  0.00000000E+00
  0.00000000E+00  0.00000000E+00  0.00000000E+00
  0.00000000E+00  0.00000000E+00  0.00000000E+00
  0.00000000E+00  0.00000000E+00  0.00000000E+00
  0.00000000E+00  0.00000000E+00  0.00000000E+00
  0.00000000E+00  0.00000000E+00  0.00000000E+00
  0.00000000E+00  0.00000000E+00  0.00000000E+00
  0.00000000E+00  0.00000000E+00  0.00000000E+00
  0.00000000E+00  0.00000000E+00  0.00000000E+00
  0.00000000E+00  0.00000000E+00  0.00000000E+00
  0.00000000E+00  0.00000000E+00  0.00000000E+00
  0.00000000E+00  0.00000000E+00  0.00000000E+00
  0.00000000E+00  0.00000000E+00  0.00000000E+00
  0.00000000E+00  0.00000000E+00  0.00000000E+00
  0.00000000E+00  0.00000000E+00  0.00000000E+00
  0.00000000E+00  0.00000000E+00  0.00000000E+00
  0.00000000E+00  0.00000000E+00  0.00000000E+00
  0.00000000E+00  0.00000000E+00  0.00000000E+00
  0.00000000E+00  0.00000000E+00  0.00000000E+00
  0.00000000E+00  0.00000000E+00  0.00000000E+00
  0.00000000E+00  0.00000000E+00  0.00000000E+00
