Ce12 C1 O25                             
   1.00000000000000     
     7.7074639999999999    0.0000000000000000    0.0000000000000000
    -3.8537319999999999    6.6748599999999998    0.0000000000000000
     0.0000000000000000    0.0000000000000000   28.3190309999999990
   Ce   O    C    O 
    12    24     1     1
Selective dynamics
Direct
  0.1669393526779408  0.3334205564761453  0.3862855549591696   T   T   T
  0.1669406767242033  0.8333899042030685  0.3862515468146119   T   T   T
  0.6669351936129051  0.3333942168669692  0.3862354934796180   T   T   T
  0.6669197478104895  0.8333901993311376  0.3862534953984124   T   T   T
  0.0002265710577034 -0.0003668056636883  0.6111045287828786   T   T   T
  0.0002600558166814  0.5002796133815635  0.6112156090389006   T   T   T
  0.5003734019116421 -0.0000543033353741  0.6113261452401093   T   T   T
  0.5007680552533655  0.5000822331495597  0.6111624851203997   T   T   T
  0.3337106886046579  0.1666912408346583  0.4987600363676803   T   T   T
  0.3336109743813103  0.6666669410259836  0.4987726665248416   T   T   T
  0.8335852354432713  0.1666929649837818  0.4987721408948334   T   T   T
  0.8336217308754640  0.6666514366560031  0.4986743102290844   T   T   T
  0.1668604367447735  0.3332001408018053  0.4698807295933098   T   T   T
  0.1670204071104635  0.8335040528343063  0.4698045128128078   T   T   T
  0.6668808596259524  0.3331693409974170  0.4698568959810619   T   T   T
  0.6670501683532856  0.8335273628054152  0.4698002128718222   T   T   T
  0.0002147400836442 -0.0000486791087061  0.3580146343212378   T   T   T
  0.0002752982366307  0.5001760818749379  0.3579843018878276   T   T   T
  0.5002306032868175  0.0000149995602756  0.3579984448331194   T   T   T
  0.5003517626996447  0.5001656714394755  0.3579819740823409   T   T   T
  0.3347347681137253  0.1672918085174349  0.5824535115383781   T   T   T
  0.3333662889605651  0.6660986592015538  0.5827251932725558   T   T   T
  0.8333970863552272  0.1672110156559402  0.5825114052659213   T   T   T
  0.8331927069031434  0.6657372514740447  0.5824803476269466   T   T   T
  0.0002275908653796 -0.0001871248458652  0.5276540703154188   T   T   T
  0.0005250444092191  0.5002801318983026  0.5276014071279106   T   T   T
  0.5001322025690365 -0.0004811941327593  0.5276726132680577   T   T   T
  0.5003830108438121  0.5003331428221200  0.5275693517149243   T   T   T
  0.3336693316319169  0.1668593153974419  0.4149090794965754   T   T   T
  0.3335451705883694  0.6665975937773742  0.4149450833395715   T   T   T
  0.8336922532762910  0.1668554468787984  0.4149066042452197   T   T   T
  0.8335415955096139  0.6665816588960513  0.4149167182204601   T   T   T
  0.1662859076948669  0.3311371747208104  0.6393834309462448   T   T   T
  0.1665824359560153  0.8339034837690382  0.6391487177802357   T   T   T
  0.6672991953244574  0.3335624419753261  0.6397563158506261   T   T   T
  0.6675952383353826  0.8334546452795123  0.6392954595455554   T   T   T
  0.2104223825743990  0.4867351021677621  0.7358447722990078   T   T   T
  0.1375308297777338  0.3429922774323769  0.7578801989123214   T   T   T
 
  0.00000000E+00  0.00000000E+00  0.00000000E+00
  0.00000000E+00  0.00000000E+00  0.00000000E+00
  0.00000000E+00  0.00000000E+00  0.00000000E+00
  0.00000000E+00  0.00000000E+00  0.00000000E+00
  0.00000000E+00  0.00000000E+00  0.00000000E+00
  0.00000000E+00  0.00000000E+00  0.00000000E+00
  0.00000000E+00  0.00000000E+00  0.00000000E+00
  0.00000000E+00  0.00000000E+00  0.00000000E+00
  0.00000000E+00  0.00000000E+00  0.00000000E+00
  0.00000000E+00  0.00000000E+00  0.00000000E+00
  0.00000000E+00  0.00000000E+00  0.00000000E+00
  0.00000000E+00  0.00000000E+00  0.00000000E+00
  0.00000000E+00  0.00000000E+00  0.00000000E+00
  0.00000000E+00  0.00000000E+00  0.00000000E+00
  0.00000000E+00  0.00000000E+00  0.00000000E+00
  0.00000000E+00  0.00000000E+00  0.00000000E+00
  0.00000000E+00  0.00000000E+00  0.00000000E+00
  0.00000000E+00  0.00000000E+00  0.00000000E+00
  0.00000000E+00  0.00000000E+00  0.00000000E+00
  0.00000000E+00  0.00000000E+00  0.00000000E+00
  0.00000000E+00  0.00000000E+00  0.00000000E+00
  0.00000000E+00  0.00000000E+00  0.00000000E+00
  0.00000000E+00  0.00000000E+00  0.00000000E+00
  0.00000000E+00  0.00000000E+00  0.00000000E+00
  0.00000000E+00  0.00000000E+00  0.00000000E+00
  0.00000000E+00  0.00000000E+00  0.00000000E+00
  0.00000000E+00  0.00000000E+00  0.00000000E+00
  0.00000000E+00  0.00000000E+00  0.00000000E+00
  0.00000000E+00  0.00000000E+00  0.00000000E+00
  0.00000000E+00  0.00000000E+00  0.00000000E+00
  0.00000000E+00  0.00000000E+00  0.00000000E+00
  0.00000000E+00  0.00000000E+00  0.00000000E+00
  0.00000000E+00  0.00000000E+00  0.00000000E+00
  0.00000000E+00  0.00000000E+00  0.00000000E+00
  0.00000000E+00  0.00000000E+00  0.00000000E+00
  0.00000000E+00  0.00000000E+00  0.00000000E+00
  0.00000000E+00  0.00000000E+00  0.00000000E+00
  0.00000000E+00  0.00000000E+00  0.00000000E+00
