Ce12 C1 O25                             
   1.00000000000000     
     7.7074639999999999    0.0000000000000000    0.0000000000000000
    -3.8537319999999999    6.6748599999999998    0.0000000000000000
     0.0000000000000000    0.0000000000000000   28.3190309999999990
   Ce   O    C    O 
    12    24     1     1
Selective dynamics
Direct
  0.1666853440309162  0.3345244511033902  0.3879589270815661   T   T   T
  0.1667845133716112  0.8346481857705863  0.3877905216860479   T   T   T
  0.6666553431756272  0.3344686254657487  0.3877672650963108   T   T   T
  0.6667055068978942  0.8346408982275170  0.3877972139541491   T   T   T
 -0.0002284091910358  0.0014794080665222  0.6127200478857761   T   T   T
  0.0001072629610668  0.5020186942179770  0.6127220009737965   T   T   T
  0.4999668295822273  0.0012550233640914  0.6142944030915023   T   T   T
  0.5001716270058084  0.5021363710568072  0.6126918068256727   T   T   T
  0.3336417502013028  0.1677703024652922  0.5004933244875923   T   T   T
  0.3336301264385179  0.6686506398054050  0.5004416025744693   T   T   T
  0.8327929474142631  0.1677989722484013  0.5004749328661360   T   T   T
  0.8333435407202440  0.6680258235580853  0.5002277885809034   T   T   T
  0.1666385309959832  0.3345548284257389  0.4714526784259644   T   T   T
  0.1660427118529789  0.8344318669518915  0.4715229947148603   T   T   T
  0.6669919533907558  0.3353420341402656  0.4714920861320796   T   T   T
  0.6670560102063587  0.8343803300605875  0.4715122306680532   T   T   T
  0.0001419505547637  0.0014930654369521  0.3595175905606214   T   T   T
  0.0001378334146419  0.5009944248633214  0.3595124989043604   T   T   T
  0.5000780372522370  0.0013267166617982  0.3594025404541322   T   T   T
  0.4997003763760485  0.5010068034518957  0.3595266962534077   T   T   T
  0.3346934702527399  0.1675621782097498  0.5846813195456945   T   T   T
  0.3339393802453269  0.6698453832535941  0.5846725527974634   T   T   T
  0.8315344011527771  0.1678868740610521  0.5846847572599206   T   T   T
  0.8332248507627785  0.6681803125059361  0.5836360564401639   T   T   T
  0.0004499735890025  0.0024426612325800  0.5294113991111516   T   T   T
  0.0006372130074447  0.5010795389926493  0.5293249306807857   T   T   T
  0.5000759439317218  0.0013921668049985  0.5292104879705840   T   T   T
  0.4989556840686053  0.5011042394176715  0.5293499579986555   T   T   T
  0.3335283077342375  0.1676000186333552  0.4165564201506976   T   T   T
  0.3335847684088823  0.6684407490075326  0.4165733553836440   T   T   T
  0.8328911876356546  0.1676308217850284  0.4165634041642642   T   T   T
  0.8334128040164970  0.6679671710582205  0.4163168047173006   T   T   T
  0.1666440917498394  0.3344949327797370  0.6412373365712369   T   T   T
  0.1627707283540684  0.8332238888416283  0.6414132008648876   T   T   T
  0.6691282924934551  0.3402049610054898  0.6417105036550210   T   T   T
  0.6680370296890985  0.8337015968590894  0.6413091401108426   T   T   T
  0.4996833667993602  0.0558411992293051  0.7174193901241336   T   T   T
  0.4997647194563024  0.1126758409801114  0.7547258312361490   T   T   T
 
  0.00000000E+00  0.00000000E+00  0.00000000E+00
  0.00000000E+00  0.00000000E+00  0.00000000E+00
  0.00000000E+00  0.00000000E+00  0.00000000E+00
  0.00000000E+00  0.00000000E+00  0.00000000E+00
  0.00000000E+00  0.00000000E+00  0.00000000E+00
  0.00000000E+00  0.00000000E+00  0.00000000E+00
  0.00000000E+00  0.00000000E+00  0.00000000E+00
  0.00000000E+00  0.00000000E+00  0.00000000E+00
  0.00000000E+00  0.00000000E+00  0.00000000E+00
  0.00000000E+00  0.00000000E+00  0.00000000E+00
  0.00000000E+00  0.00000000E+00  0.00000000E+00
  0.00000000E+00  0.00000000E+00  0.00000000E+00
  0.00000000E+00  0.00000000E+00  0.00000000E+00
  0.00000000E+00  0.00000000E+00  0.00000000E+00
  0.00000000E+00  0.00000000E+00  0.00000000E+00
  0.00000000E+00  0.00000000E+00  0.00000000E+00
  0.00000000E+00  0.00000000E+00  0.00000000E+00
  0.00000000E+00  0.00000000E+00  0.00000000E+00
  0.00000000E+00  0.00000000E+00  0.00000000E+00
  0.00000000E+00  0.00000000E+00  0.00000000E+00
  0.00000000E+00  0.00000000E+00  0.00000000E+00
  0.00000000E+00  0.00000000E+00  0.00000000E+00
  0.00000000E+00  0.00000000E+00  0.00000000E+00
  0.00000000E+00  0.00000000E+00  0.00000000E+00
  0.00000000E+00  0.00000000E+00  0.00000000E+00
  0.00000000E+00  0.00000000E+00  0.00000000E+00
  0.00000000E+00  0.00000000E+00  0.00000000E+00
  0.00000000E+00  0.00000000E+00  0.00000000E+00
  0.00000000E+00  0.00000000E+00  0.00000000E+00
  0.00000000E+00  0.00000000E+00  0.00000000E+00
  0.00000000E+00  0.00000000E+00  0.00000000E+00
  0.00000000E+00  0.00000000E+00  0.00000000E+00
  0.00000000E+00  0.00000000E+00  0.00000000E+00
  0.00000000E+00  0.00000000E+00  0.00000000E+00
  0.00000000E+00  0.00000000E+00  0.00000000E+00
  0.00000000E+00  0.00000000E+00  0.00000000E+00
  0.00000000E+00  0.00000000E+00  0.00000000E+00
  0.00000000E+00  0.00000000E+00  0.00000000E+00
