Ce12 C1 O25                             
   1.00000000000000     
     7.7074639999999999    0.0000000000000000    0.0000000000000000
    -3.8537319999999999    6.6748599999999998    0.0000000000000000
     0.0000000000000000    0.0000000000000000   28.3190309999999990
   Ce   O    C    O 
    12    24     1     1
Selective dynamics
Direct
  0.1669415725326564  0.3324005484828417  0.3868160391797902   T   T   T
  0.1669471331866823  0.8324416028009510  0.3868539210498063   T   T   T
  0.6669456616564075  0.3324329568532775  0.3868496451676456   T   T   T
  0.6669859758077659  0.8324548057580866  0.3868011292405809   T   T   T
  0.0007205369067741 -0.0011339553802776  0.6121774363173899   T   T   T
  0.0008576963322977  0.4987789383237373  0.6118709573862401   T   T   T
  0.5008647457872420 -0.0013306051237520  0.6118836416872734   T   T   T
  0.5007851564324239  0.4988548934468540  0.6119094670479419   T   T   T
  0.3337009576252459  0.1655323747184170  0.4994243923293127   T   T   T
  0.3338937208455438  0.6656263255953486  0.4993616105311954   T   T   T
  0.8338548735117868  0.1656003143156458  0.4993901479949643   T   T   T
  0.8338592349839360  0.6656900716815223  0.4994150592840936   T   T   T
  0.1671358799605037  0.3324522702172162  0.4704918834669108   T   T   T
  0.1670451323963411  0.8322254205203917  0.4705699144807711   T   T   T
  0.6672099802510295  0.3324505093269654  0.4704468291620026   T   T   T
  0.6670250459900983  0.8322161371941766  0.4705311483977597   T   T   T
  0.0002568588958743 -0.0008845783186645  0.3585137638856633   T   T   T
  0.0002548125165783  0.4990460018129349  0.3585641900482411   T   T   T
  0.5003139390433885 -0.0008935220857111  0.3585473637561991   T   T   T
  0.5002788504051053  0.4990499644918647  0.3584986161011826   T   T   T
  0.3336664553670564  0.1651011099888359  0.5834478381943198   T   T   T
  0.3348576766737772  0.6658851446756650  0.5831128276076439   T   T   T
  0.8338065315110711  0.1649913235098936  0.5833751531954502   T   T   T
  0.8339421962775586  0.6658293392444748  0.5833553852343957   T   T   T
  0.0005538460457340 -0.0009515957250793  0.5283690854285684   T   T   T
  0.0003730558524922  0.4987253581482675  0.5283445291681175   T   T   T
  0.5007192087448159 -0.0006768287844398  0.5282611912048826   T   T   T
  0.5005706911964560  0.4984648274877751  0.5282886037361028   T   T   T
  0.3335251339708917  0.1656331796219546  0.4155106244243073   T   T   T
  0.3336861372078102  0.6658137248436757  0.4154775075966436   T   T   T
  0.8336593743494655  0.1656510730476412  0.4155003857376747   T   T   T
  0.8337388018777143  0.6659159834066087  0.4154907414055788   T   T   T
  0.1676427604984997  0.3333237033529748  0.6400215007858572   T   T   T
  0.1676543191731127  0.8309386562050115  0.6401899017457383   T   T   T
  0.6673535131533480  0.3320754452681099  0.6403240349635000   T   T   T
  0.6674160196976208  0.8320640770315401  0.6404820446583179   T   T   T
  0.1748926044110379 -0.0079762423735845  0.7719861786421106   T   T   T
  0.1393979089238510  0.0461812464188480  0.7376613097558230   T   T   T
 
  0.00000000E+00  0.00000000E+00  0.00000000E+00
  0.00000000E+00  0.00000000E+00  0.00000000E+00
  0.00000000E+00  0.00000000E+00  0.00000000E+00
  0.00000000E+00  0.00000000E+00  0.00000000E+00
  0.00000000E+00  0.00000000E+00  0.00000000E+00
  0.00000000E+00  0.00000000E+00  0.00000000E+00
  0.00000000E+00  0.00000000E+00  0.00000000E+00
  0.00000000E+00  0.00000000E+00  0.00000000E+00
  0.00000000E+00  0.00000000E+00  0.00000000E+00
  0.00000000E+00  0.00000000E+00  0.00000000E+00
  0.00000000E+00  0.00000000E+00  0.00000000E+00
  0.00000000E+00  0.00000000E+00  0.00000000E+00
  0.00000000E+00  0.00000000E+00  0.00000000E+00
  0.00000000E+00  0.00000000E+00  0.00000000E+00
  0.00000000E+00  0.00000000E+00  0.00000000E+00
  0.00000000E+00  0.00000000E+00  0.00000000E+00
  0.00000000E+00  0.00000000E+00  0.00000000E+00
  0.00000000E+00  0.00000000E+00  0.00000000E+00
  0.00000000E+00  0.00000000E+00  0.00000000E+00
  0.00000000E+00  0.00000000E+00  0.00000000E+00
  0.00000000E+00  0.00000000E+00  0.00000000E+00
  0.00000000E+00  0.00000000E+00  0.00000000E+00
  0.00000000E+00  0.00000000E+00  0.00000000E+00
  0.00000000E+00  0.00000000E+00  0.00000000E+00
  0.00000000E+00  0.00000000E+00  0.00000000E+00
  0.00000000E+00  0.00000000E+00  0.00000000E+00
  0.00000000E+00  0.00000000E+00  0.00000000E+00
  0.00000000E+00  0.00000000E+00  0.00000000E+00
  0.00000000E+00  0.00000000E+00  0.00000000E+00
  0.00000000E+00  0.00000000E+00  0.00000000E+00
  0.00000000E+00  0.00000000E+00  0.00000000E+00
  0.00000000E+00  0.00000000E+00  0.00000000E+00
  0.00000000E+00  0.00000000E+00  0.00000000E+00
  0.00000000E+00  0.00000000E+00  0.00000000E+00
  0.00000000E+00  0.00000000E+00  0.00000000E+00
  0.00000000E+00  0.00000000E+00  0.00000000E+00
  0.00000000E+00  0.00000000E+00  0.00000000E+00
  0.00000000E+00  0.00000000E+00  0.00000000E+00
