Ce12 C1 O25                             
   1.00000000000000     
     7.7074639999999999    0.0000000000000000    0.0000000000000000
    -3.8537319999999999    6.6748599999999998    0.0000000000000000
     0.0000000000000000    0.0000000000000000   28.3190309999999990
   Ce   O    C    O 
    12    24     1     1
Selective dynamics
Direct
  0.1707337269168073  0.3328644037266078  0.3871038643914530   T   T   T
  0.1706814693067925  0.8326309945211097  0.3871084661121859   T   T   T
  0.6709079890258723  0.3328663820322136  0.3870893516525878   T   T   T
  0.6708221854851435  0.8327725578215583  0.3871915112618688   T   T   T
  0.0037570350782615 -0.0024044321355607  0.6119179484413551   T   T   T
  0.0030472810643052  0.4990297582757538  0.6130960675667581   T   T   T
  0.5034873085498536 -0.0017105121671726  0.6119782727772426   T   T   T
  0.5038811078254786  0.4979287789669438  0.6119145597487349   T   T   T
  0.3369956428675841  0.1654642270002409  0.4994942450621496   T   T   T
  0.3364910579385874  0.6651833020974274  0.4996835400800942   T   T   T
  0.8374974860925077  0.1660558512022607  0.4996861195627506   T   T   T
  0.8372689513099819  0.6653861960345996  0.4995636765011235   T   T   T
  0.1708163576054802  0.3319140226399354  0.4708361163973618   T   T   T
  0.1711685250724229  0.8333855315946722  0.4706780881513158   T   T   T
  0.6694627310435299  0.3317122352233590  0.4706933259554766   T   T   T
  0.6704079594060272  0.8323869319110280  0.4705950610331538   T   T   T
  0.0037641805911239 -0.0011878192506408  0.3588541004965060   T   T   T
  0.0039428697097589  0.4998805491285667  0.3587808733210408   T   T   T
  0.5042382204505245 -0.0005450064348666  0.3590636551580594   T   T   T
  0.5048091446162056  0.4999530221929935  0.3588527267017051   T   T   T
  0.3373536680603645  0.1651162467154613  0.5827806815628910   T   T   T
  0.3346923641538411  0.6634591742810103  0.5838624596762680   T   T   T
  0.8385850733455072  0.1673326328102515  0.5838478791827360   T   T   T
  0.8371337435767501  0.6640383736498341  0.5836350565316316   T   T   T
  0.0026899828770380 -0.0019738046380615  0.5285479458836546   T   T   T
  0.0034457728225480  0.4989913575863128  0.5280980582084538   T   T   T
  0.5045358134491521 -0.0019564922702945  0.5286029469403379   T   T   T
  0.5042353359125711  0.4997041057507250  0.5285636695593956   T   T   T
  0.3371034397736801  0.1660647474062149  0.4156194289828586   T   T   T
  0.3366055805541469  0.6654871004334293  0.4158156892523469   T   T   T
  0.8377310387383303  0.1665575318274576  0.4158219516915389   T   T   T
  0.8376474551847023  0.6657281165509586  0.4158941193176955   T   T   T
  0.1736983501744680  0.3281693763507939  0.6407638591699306   T   T   T
  0.1710763817912438  0.8350741100543230  0.6403825525636396   T   T   T
  0.6670242939183970  0.3305474308521916  0.6405026578484145   T   T   T
  0.6700496174704236  0.8314439458943287  0.6404008040752099   T   T   T
  0.0397050584052707  0.4562425757421583  0.7118931997499589   T   T   T
  0.0702947998353150  0.4153164966218796  0.7485754694301110   T   T   T
 
  0.00000000E+00  0.00000000E+00  0.00000000E+00
  0.00000000E+00  0.00000000E+00  0.00000000E+00
  0.00000000E+00  0.00000000E+00  0.00000000E+00
  0.00000000E+00  0.00000000E+00  0.00000000E+00
  0.00000000E+00  0.00000000E+00  0.00000000E+00
  0.00000000E+00  0.00000000E+00  0.00000000E+00
  0.00000000E+00  0.00000000E+00  0.00000000E+00
  0.00000000E+00  0.00000000E+00  0.00000000E+00
  0.00000000E+00  0.00000000E+00  0.00000000E+00
  0.00000000E+00  0.00000000E+00  0.00000000E+00
  0.00000000E+00  0.00000000E+00  0.00000000E+00
  0.00000000E+00  0.00000000E+00  0.00000000E+00
  0.00000000E+00  0.00000000E+00  0.00000000E+00
  0.00000000E+00  0.00000000E+00  0.00000000E+00
  0.00000000E+00  0.00000000E+00  0.00000000E+00
  0.00000000E+00  0.00000000E+00  0.00000000E+00
  0.00000000E+00  0.00000000E+00  0.00000000E+00
  0.00000000E+00  0.00000000E+00  0.00000000E+00
  0.00000000E+00  0.00000000E+00  0.00000000E+00
  0.00000000E+00  0.00000000E+00  0.00000000E+00
  0.00000000E+00  0.00000000E+00  0.00000000E+00
  0.00000000E+00  0.00000000E+00  0.00000000E+00
  0.00000000E+00  0.00000000E+00  0.00000000E+00
  0.00000000E+00  0.00000000E+00  0.00000000E+00
  0.00000000E+00  0.00000000E+00  0.00000000E+00
  0.00000000E+00  0.00000000E+00  0.00000000E+00
  0.00000000E+00  0.00000000E+00  0.00000000E+00
  0.00000000E+00  0.00000000E+00  0.00000000E+00
  0.00000000E+00  0.00000000E+00  0.00000000E+00
  0.00000000E+00  0.00000000E+00  0.00000000E+00
  0.00000000E+00  0.00000000E+00  0.00000000E+00
  0.00000000E+00  0.00000000E+00  0.00000000E+00
  0.00000000E+00  0.00000000E+00  0.00000000E+00
  0.00000000E+00  0.00000000E+00  0.00000000E+00
  0.00000000E+00  0.00000000E+00  0.00000000E+00
  0.00000000E+00  0.00000000E+00  0.00000000E+00
  0.00000000E+00  0.00000000E+00  0.00000000E+00
  0.00000000E+00  0.00000000E+00  0.00000000E+00
