Ce12 C1 O25                             
   1.00000000000000     
     7.7074639999999999    0.0000000000000000    0.0000000000000000
    -3.8537319999999999    6.6748599999999998    0.0000000000000000
     0.0000000000000000    0.0000000000000000   28.3190309999999990
   Ce   O    C    O 
    12    24     1     1
Selective dynamics
Direct
  0.1668490432056857  0.3336329912662475  0.3853946161918900   T   T   T
  0.1669950394093048  0.8335333397989445  0.3854525602326442   T   T   T
  0.6667041865029198  0.3333719449820834  0.3854751605954760   T   T   T
  0.6666322998516556  0.8335338981455451  0.3854891765328721   T   T   T
 -0.0003068927727133  0.0000338100570065  0.6107019215080859   T   T   T
 -0.0002264587744709  0.4995186768187993  0.6106542272582358   T   T   T
  0.4993971346959324 -0.0004658657068362  0.6107492705017610   T   T   T
  0.4998057702284597  0.4995468674023865  0.6107445155685680   T   T   T
  0.3332116502371139  0.1668078946658742  0.4981069829282924   T   T   T
  0.3333105391039340  0.6664256382827721  0.4981231973175799   T   T   T
  0.8333804757808692  0.1668041442110312  0.4980989402789500   T   T   T
  0.8334607696808516  0.6667464122369967  0.4981674225049791   T   T   T
  0.1666187412620094  0.3331446857143431  0.4689762147812383   T   T   T
  0.1663897762417695  0.8335170663662490  0.4689934565240275   T   T   T
  0.6667764244065806  0.3334619006562920  0.4692263012501017   T   T   T
  0.6670731835810834  0.8335406255813653  0.4691447371733930   T   T   T
  0.0001177814051483  0.0003606699440337  0.3572509111344361   T   T   T
  0.0006996352114135  0.5002895358988180  0.3570516714211908   T   T   T
  0.4999494393978396 -0.0002266937437907  0.3571208110886021   T   T   T
  0.4997583348777332  0.5003722703803121  0.3571034068086164   T   T   T
  0.3332325180319127  0.1673175701242746  0.5820139703799293   T   T   T
  0.3328540033079208  0.6651888755310136  0.5821265994895992   T   T   T
  0.8330513808911096  0.1670358262551046  0.5818505943035190   T   T   T
  0.8330687319221265  0.6659254912444917  0.5819687703960882   T   T   T
  0.0000522417129624  0.0000695998727274  0.5271695783173054   T   T   T
  0.0005847356224508  0.5004004917198492  0.5270543981172839   T   T   T
  0.4990638799379110 -0.0007993891477989  0.5272147513380250   T   T   T
  0.5000377210124274  0.5000870789097935  0.5270833854878317   T   T   T
  0.3341880686889458  0.1669319411914054  0.4141380244368237   T   T   T
  0.3336923799107655  0.6672272550882526  0.4142526197729133   T   T   T
  0.8327872572861510  0.1669156430397054  0.4141614483487865   T   T   T
  0.8331450246050668  0.6662576653687650  0.4141044231210031   T   T   T
  0.1650098028791704  0.3316727123648403  0.6393314674965038   T   T   T
  0.1669224993997422  0.8335515764618918  0.6387976686119515   T   T   T
  0.6659909470133994  0.3325974383528742  0.6390687382952923   T   T   T
  0.6668149555429873  0.8335779421113045  0.6388151137617967   T   T   T
  0.1613419018674644  0.4656362348856822  0.7705082986292784   T   T   T
  0.2604440768343625  0.5964342336673431  0.7461046480951259   T   T   T
 
  0.00000000E+00  0.00000000E+00  0.00000000E+00
  0.00000000E+00  0.00000000E+00  0.00000000E+00
  0.00000000E+00  0.00000000E+00  0.00000000E+00
  0.00000000E+00  0.00000000E+00  0.00000000E+00
  0.00000000E+00  0.00000000E+00  0.00000000E+00
  0.00000000E+00  0.00000000E+00  0.00000000E+00
  0.00000000E+00  0.00000000E+00  0.00000000E+00
  0.00000000E+00  0.00000000E+00  0.00000000E+00
  0.00000000E+00  0.00000000E+00  0.00000000E+00
  0.00000000E+00  0.00000000E+00  0.00000000E+00
  0.00000000E+00  0.00000000E+00  0.00000000E+00
  0.00000000E+00  0.00000000E+00  0.00000000E+00
  0.00000000E+00  0.00000000E+00  0.00000000E+00
  0.00000000E+00  0.00000000E+00  0.00000000E+00
  0.00000000E+00  0.00000000E+00  0.00000000E+00
  0.00000000E+00  0.00000000E+00  0.00000000E+00
  0.00000000E+00  0.00000000E+00  0.00000000E+00
  0.00000000E+00  0.00000000E+00  0.00000000E+00
  0.00000000E+00  0.00000000E+00  0.00000000E+00
  0.00000000E+00  0.00000000E+00  0.00000000E+00
  0.00000000E+00  0.00000000E+00  0.00000000E+00
  0.00000000E+00  0.00000000E+00  0.00000000E+00
  0.00000000E+00  0.00000000E+00  0.00000000E+00
  0.00000000E+00  0.00000000E+00  0.00000000E+00
  0.00000000E+00  0.00000000E+00  0.00000000E+00
  0.00000000E+00  0.00000000E+00  0.00000000E+00
  0.00000000E+00  0.00000000E+00  0.00000000E+00
  0.00000000E+00  0.00000000E+00  0.00000000E+00
  0.00000000E+00  0.00000000E+00  0.00000000E+00
  0.00000000E+00  0.00000000E+00  0.00000000E+00
  0.00000000E+00  0.00000000E+00  0.00000000E+00
  0.00000000E+00  0.00000000E+00  0.00000000E+00
  0.00000000E+00  0.00000000E+00  0.00000000E+00
  0.00000000E+00  0.00000000E+00  0.00000000E+00
  0.00000000E+00  0.00000000E+00  0.00000000E+00
  0.00000000E+00  0.00000000E+00  0.00000000E+00
  0.00000000E+00  0.00000000E+00  0.00000000E+00
  0.00000000E+00  0.00000000E+00  0.00000000E+00
