Ce12 C1 O25                             
   1.00000000000000     
     7.7074639999999999    0.0000000000000000    0.0000000000000000
    -3.8537319999999999    6.6748599999999998    0.0000000000000000
     0.0000000000000000    0.0000000000000000   28.3190309999999990
   Ce   O    C    O 
    12    24     1     1
Selective dynamics
Direct
  0.1652941571168771  0.3334204468182668  0.3880424099752449   T   T   T
  0.1653677720453452  0.8334381546947203  0.3878247373711977   T   T   T
  0.6652154689685956  0.3333961129470309  0.3879245423883219   T   T   T
  0.6652148698636697  0.8333285232866385  0.3879358175918028   T   T   T
 -0.0022700650797314 -0.0002421356726223  0.6128347976843649   T   T   T
 -0.0021329848411147  0.4998172433195568  0.6128873667287900   T   T   T
  0.4986037273405680 -0.0000264210979296  0.6142192936236578   T   T   T
  0.4985841340540556  0.5003814889710146  0.6129266206889472   T   T   T
  0.3319934079667671  0.1662900828560241  0.5006070695806153   T   T   T
  0.3318482647204627  0.6670341645858540  0.5005895250647161   T   T   T
  0.8311095274100494  0.1662796511199640  0.5005499816148078   T   T   T
  0.8318146418987927  0.6666386131917659  0.5004227488489387   T   T   T
  0.1648520415803445  0.3331521495405223  0.4715849749860836   T   T   T
  0.1641269094307380  0.8328080997022070  0.4714723910880912   T   T   T
  0.6654747594402999  0.3339964071620150  0.4717232545517598   T   T   T
  0.6656692896313958  0.8329509371370060  0.4716709144397593   T   T   T
 -0.0009765559216184  0.0005324441973600  0.3596244593518596   T   T   T
 -0.0010282891638869  0.5001977716333763  0.3595743890641793   T   T   T
  0.4983776739110986 -0.0000123282106739  0.3595323717800190   T   T   T
  0.4983263425955001  0.5000228474507606  0.3596952373613720   T   T   T
  0.3324763374153575  0.1651280356726705  0.5848839255967817   T   T   T
  0.3321097803039278  0.6685161059651904  0.5848196870188409   T   T   T
  0.8297362891378857  0.1657291911430036  0.5847522495288417   T   T   T
  0.8318468792103353  0.6670836449841050  0.5838583859971622   T   T   T
 -0.0009402972976823  0.0010699186212231  0.5295435529627555   T   T   T
 -0.0012393024798688  0.4994871613603062  0.5295432540759680   T   T   T
  0.4979951069850601 -0.0004347775711866  0.5290959433575320   T   T   T
  0.4973570132193655  0.4995139228664886  0.5296584296558583   T   T   T
  0.3323814984348368  0.1668050985014845  0.4167112965954449   T   T   T
  0.3322906506059706  0.6670795352363784  0.4167081815574178   T   T   T
  0.8311995964256033  0.1664496356274834  0.4166523302932245   T   T   T
  0.8316172668576755  0.6664686488535574  0.4164501816249733   T   T   T
  0.1653299646502814  0.3331315980411870  0.6414586700535433   T   T   T
  0.1592289437793883  0.8301226069957865  0.6417941556075530   T   T   T
  0.6669470850722766  0.3377169665862310  0.6415752996611692   T   T   T
  0.6661188170342817  0.8317795841076551  0.6415540594511603   T   T   T
  0.4441598058418896  0.0010179168803778  0.7146987002071536   T   T   T
  0.3936974718352045 -0.0000690475048005  0.7527147929700909   T   T   T
 
  0.00000000E+00  0.00000000E+00  0.00000000E+00
  0.00000000E+00  0.00000000E+00  0.00000000E+00
  0.00000000E+00  0.00000000E+00  0.00000000E+00
  0.00000000E+00  0.00000000E+00  0.00000000E+00
  0.00000000E+00  0.00000000E+00  0.00000000E+00
  0.00000000E+00  0.00000000E+00  0.00000000E+00
  0.00000000E+00  0.00000000E+00  0.00000000E+00
  0.00000000E+00  0.00000000E+00  0.00000000E+00
  0.00000000E+00  0.00000000E+00  0.00000000E+00
  0.00000000E+00  0.00000000E+00  0.00000000E+00
  0.00000000E+00  0.00000000E+00  0.00000000E+00
  0.00000000E+00  0.00000000E+00  0.00000000E+00
  0.00000000E+00  0.00000000E+00  0.00000000E+00
  0.00000000E+00  0.00000000E+00  0.00000000E+00
  0.00000000E+00  0.00000000E+00  0.00000000E+00
  0.00000000E+00  0.00000000E+00  0.00000000E+00
  0.00000000E+00  0.00000000E+00  0.00000000E+00
  0.00000000E+00  0.00000000E+00  0.00000000E+00
  0.00000000E+00  0.00000000E+00  0.00000000E+00
  0.00000000E+00  0.00000000E+00  0.00000000E+00
  0.00000000E+00  0.00000000E+00  0.00000000E+00
  0.00000000E+00  0.00000000E+00  0.00000000E+00
  0.00000000E+00  0.00000000E+00  0.00000000E+00
  0.00000000E+00  0.00000000E+00  0.00000000E+00
  0.00000000E+00  0.00000000E+00  0.00000000E+00
  0.00000000E+00  0.00000000E+00  0.00000000E+00
  0.00000000E+00  0.00000000E+00  0.00000000E+00
  0.00000000E+00  0.00000000E+00  0.00000000E+00
  0.00000000E+00  0.00000000E+00  0.00000000E+00
  0.00000000E+00  0.00000000E+00  0.00000000E+00
  0.00000000E+00  0.00000000E+00  0.00000000E+00
  0.00000000E+00  0.00000000E+00  0.00000000E+00
  0.00000000E+00  0.00000000E+00  0.00000000E+00
  0.00000000E+00  0.00000000E+00  0.00000000E+00
  0.00000000E+00  0.00000000E+00  0.00000000E+00
  0.00000000E+00  0.00000000E+00  0.00000000E+00
  0.00000000E+00  0.00000000E+00  0.00000000E+00
  0.00000000E+00  0.00000000E+00  0.00000000E+00
