Ce12 C1 O25                             
   1.00000000000000     
     7.7074639999999999    0.0000000000000000    0.0000000000000000
    -3.8537319999999999    6.6748599999999998    0.0000000000000000
     0.0000000000000000    0.0000000000000000   28.3190309999999990
   Ce   O    C    O 
    12    24     1     1
Selective dynamics
Direct
  0.1677892685324891  0.3329225298773842  0.3866990820848715   T   T   T
  0.1676682037357951  0.8329570779113421  0.3868354166916321   T   T   T
  0.6676055426521359  0.3329959585527761  0.3867578953943829   T   T   T
  0.6677436496950194  0.8329338781942033  0.3866946543256506   T   T   T
  0.0013783046559916  0.0007070162376176  0.6123778260345241   T   T   T
  0.0014550497888245  0.5004689621499983  0.6117953162344145   T   T   T
  0.5016824996782321  0.0005528587906988  0.6117918384376844   T   T   T
  0.5013885102369671  0.5005156030802295  0.6117473231674004   T   T   T
  0.3343283190375954  0.1666192890214210  0.4992700486442423   T   T   T
  0.3345680406585990  0.6666893213256149  0.4991753668571055   T   T   T
  0.8346303899943500  0.1666354137026038  0.4992070692726235   T   T   T
  0.8346002736173637  0.6668650429608121  0.4992634822908301   T   T   T
  0.1679142438105570  0.3334044072144576  0.4702621556864685   T   T   T
  0.1677903905060055  0.8332663173694964  0.4704423330538373   T   T   T
  0.6678462277072139  0.3334885886155043  0.4702184229412192   T   T   T
  0.6678472764261276  0.8332652260565706  0.4703644380201424   T   T   T
  0.0011255677536374 -0.0007238592121395  0.3585902746374107   T   T   T
  0.0010108096174071  0.4994188215108216  0.3586624162792447   T   T   T
  0.5008501674343712 -0.0006968029645600  0.3586518487664378   T   T   T
  0.5009852029162010  0.4991935521605058  0.3581915524437520   T   T   T
  0.3341864529659205  0.1665483667766290  0.5832701629975179   T   T   T
  0.3346664365079314  0.6673576630599766  0.5830112624103376   T   T   T
  0.8349031266104374  0.1671323299231543  0.5833925920812760   T   T   T
  0.8351521626972974  0.6674748261913221  0.5832817385088447   T   T   T
  0.0010416933988303  0.0004177022857699  0.5282887657657432   T   T   T
  0.0009424749285125  0.4997755176584628  0.5281706216213738   T   T   T
  0.5017597333110156  0.0006215961982805  0.5281468643110135   T   T   T
  0.5012039369716516  0.4997070092316993  0.5281528652986053   T   T   T
  0.3343211214684111  0.1663830384218120  0.4154252908596554   T   T   T
  0.3345843458411000  0.6663268993558712  0.4154477388307309   T   T   T
  0.8344595208074040  0.1663426786011118  0.4153872128407246   T   T   T
  0.8343187442086163  0.6664861938371399  0.4154478776137823   T   T   T
  0.1688438147755714  0.3353122950576692  0.6400682663685999   T   T   T
  0.1690071620853121  0.8343605570290064  0.6405880680755044   T   T   T
  0.6680085921669100  0.3339219371193385  0.6402448201736132   T   T   T
  0.6673672251514268  0.8332340553141034  0.6401254390716684   T   T   T
  0.1471305355553529  0.0104672511765384  0.7442440415437062   T   T   T
  0.2523389820934209 -0.0133491197932445  0.7684236103634284   T   T   T
 
  0.00000000E+00  0.00000000E+00  0.00000000E+00
  0.00000000E+00  0.00000000E+00  0.00000000E+00
  0.00000000E+00  0.00000000E+00  0.00000000E+00
  0.00000000E+00  0.00000000E+00  0.00000000E+00
  0.00000000E+00  0.00000000E+00  0.00000000E+00
  0.00000000E+00  0.00000000E+00  0.00000000E+00
  0.00000000E+00  0.00000000E+00  0.00000000E+00
  0.00000000E+00  0.00000000E+00  0.00000000E+00
  0.00000000E+00  0.00000000E+00  0.00000000E+00
  0.00000000E+00  0.00000000E+00  0.00000000E+00
  0.00000000E+00  0.00000000E+00  0.00000000E+00
  0.00000000E+00  0.00000000E+00  0.00000000E+00
  0.00000000E+00  0.00000000E+00  0.00000000E+00
  0.00000000E+00  0.00000000E+00  0.00000000E+00
  0.00000000E+00  0.00000000E+00  0.00000000E+00
  0.00000000E+00  0.00000000E+00  0.00000000E+00
  0.00000000E+00  0.00000000E+00  0.00000000E+00
  0.00000000E+00  0.00000000E+00  0.00000000E+00
  0.00000000E+00  0.00000000E+00  0.00000000E+00
  0.00000000E+00  0.00000000E+00  0.00000000E+00
  0.00000000E+00  0.00000000E+00  0.00000000E+00
  0.00000000E+00  0.00000000E+00  0.00000000E+00
  0.00000000E+00  0.00000000E+00  0.00000000E+00
  0.00000000E+00  0.00000000E+00  0.00000000E+00
  0.00000000E+00  0.00000000E+00  0.00000000E+00
  0.00000000E+00  0.00000000E+00  0.00000000E+00
  0.00000000E+00  0.00000000E+00  0.00000000E+00
  0.00000000E+00  0.00000000E+00  0.00000000E+00
  0.00000000E+00  0.00000000E+00  0.00000000E+00
  0.00000000E+00  0.00000000E+00  0.00000000E+00
  0.00000000E+00  0.00000000E+00  0.00000000E+00
  0.00000000E+00  0.00000000E+00  0.00000000E+00
  0.00000000E+00  0.00000000E+00  0.00000000E+00
  0.00000000E+00  0.00000000E+00  0.00000000E+00
  0.00000000E+00  0.00000000E+00  0.00000000E+00
  0.00000000E+00  0.00000000E+00  0.00000000E+00
  0.00000000E+00  0.00000000E+00  0.00000000E+00
  0.00000000E+00  0.00000000E+00  0.00000000E+00
