Ce12 C1 O25                             
   1.00000000000000     
     7.7074639999999999    0.0000000000000000    0.0000000000000000
    -3.8537319999999999    6.6748599999999998    0.0000000000000000
     0.0000000000000000    0.0000000000000000   28.3190309999999990
   Ce   O    C    O 
    12    24     1     1
Selective dynamics
Direct
  0.1667258521548534  0.3345799400810794  0.3866796878635800   T   T   T
  0.1667646922448003  0.8344157796350860  0.3865757168547139   T   T   T
  0.6667521957654273  0.3344838281303842  0.3865692665470307   T   T   T
  0.6667159037515367  0.8345055340045202  0.3865119826150091   T   T   T
 -0.0011936167316442  0.0013406741127788  0.6114957080470539   T   T   T
 -0.0006198503263883  0.5014816458563003  0.6115148336131899   T   T   T
  0.4995600634153969  0.0017685223099314  0.6120404828050463   T   T   T
  0.4996123814080104  0.5016968849858205  0.6114844231089911   T   T   T
  0.3331134560980846  0.1676646244288344  0.4991369824177134   T   T   T
  0.3333554660304160  0.6682130381214021  0.4990911756410892   T   T   T
  0.8328551617886465  0.1678677045010308  0.4990890224341418   T   T   T
  0.8330902857083669  0.6677785213392566  0.4990032296099722   T   T   T
  0.1663247798567883  0.3342618761086734  0.4702686893299683   T   T   T
  0.1666131133915585  0.8347111647176916  0.4701565420069934   T   T   T
  0.6664703977110553  0.3343041234361532  0.4701130295185154   T   T   T
  0.6665873533537120  0.8347609293603533  0.4700984229375391   T   T   T
 -0.0002524139454309  0.0010056127334229  0.3584319494853851   T   T   T
  0.0004329663827116  0.5015536067915773  0.3583264054946423   T   T   T
  0.5000979590515083  0.0008421024468509  0.3582549411443743   T   T   T
  0.5002436988725660  0.5017866012723029  0.3584287376826406   T   T   T
  0.3328370642485388  0.1675515782865019  0.5830241977210950   T   T   T
  0.3335840042659044  0.6690728974190256  0.5829389408012375   T   T   T
  0.8320686825594130  0.1681422575873183  0.5830202112606128   T   T   T
  0.8325666799776764  0.6678062814163320  0.5827415720073156   T   T   T
 -0.0007359927064874  0.0011961838957128  0.5280623824792064   T   T   T
 -0.0000782920215573  0.5013904562898508  0.5279689578425886   T   T   T
  0.4998097457896722  0.0016328468578512  0.5280204145954163   T   T   T
  0.4996223003177292  0.5009854234099523  0.5279092886663602   T   T   T
  0.3334827186269748  0.1679668296908063  0.4152200454193365   T   T   T
  0.3331070277822164  0.6676838071402996  0.4153631779607288   T   T   T
  0.8334264867503325  0.1682941169736246  0.4152416535076610   T   T   T
  0.8333879543012320  0.6674926750624929  0.4153167857070493   T   T   T
  0.1662724290326841  0.3349307679596220  0.6396737730416714   T   T   T
  0.1644727694763850  0.8339367128972621  0.6399484998393244   T   T   T
  0.6660765476327812  0.3357421373296202  0.6398144217295750   T   T   T
  0.6667284263192538  0.8347111747817035  0.6399392310137395   T   T   T
  0.3257056280668491  0.0704941746769895  0.7345295528561601   T   T   T
  0.2029139735984269  0.1041689639515878  0.7457856643933308   T   T   T
 
  0.00000000E+00  0.00000000E+00  0.00000000E+00
  0.00000000E+00  0.00000000E+00  0.00000000E+00
  0.00000000E+00  0.00000000E+00  0.00000000E+00
  0.00000000E+00  0.00000000E+00  0.00000000E+00
  0.00000000E+00  0.00000000E+00  0.00000000E+00
  0.00000000E+00  0.00000000E+00  0.00000000E+00
  0.00000000E+00  0.00000000E+00  0.00000000E+00
  0.00000000E+00  0.00000000E+00  0.00000000E+00
  0.00000000E+00  0.00000000E+00  0.00000000E+00
  0.00000000E+00  0.00000000E+00  0.00000000E+00
  0.00000000E+00  0.00000000E+00  0.00000000E+00
  0.00000000E+00  0.00000000E+00  0.00000000E+00
  0.00000000E+00  0.00000000E+00  0.00000000E+00
  0.00000000E+00  0.00000000E+00  0.00000000E+00
  0.00000000E+00  0.00000000E+00  0.00000000E+00
  0.00000000E+00  0.00000000E+00  0.00000000E+00
  0.00000000E+00  0.00000000E+00  0.00000000E+00
  0.00000000E+00  0.00000000E+00  0.00000000E+00
  0.00000000E+00  0.00000000E+00  0.00000000E+00
  0.00000000E+00  0.00000000E+00  0.00000000E+00
  0.00000000E+00  0.00000000E+00  0.00000000E+00
  0.00000000E+00  0.00000000E+00  0.00000000E+00
  0.00000000E+00  0.00000000E+00  0.00000000E+00
  0.00000000E+00  0.00000000E+00  0.00000000E+00
  0.00000000E+00  0.00000000E+00  0.00000000E+00
  0.00000000E+00  0.00000000E+00  0.00000000E+00
  0.00000000E+00  0.00000000E+00  0.00000000E+00
  0.00000000E+00  0.00000000E+00  0.00000000E+00
  0.00000000E+00  0.00000000E+00  0.00000000E+00
  0.00000000E+00  0.00000000E+00  0.00000000E+00
  0.00000000E+00  0.00000000E+00  0.00000000E+00
  0.00000000E+00  0.00000000E+00  0.00000000E+00
  0.00000000E+00  0.00000000E+00  0.00000000E+00
  0.00000000E+00  0.00000000E+00  0.00000000E+00
  0.00000000E+00  0.00000000E+00  0.00000000E+00
  0.00000000E+00  0.00000000E+00  0.00000000E+00
  0.00000000E+00  0.00000000E+00  0.00000000E+00
  0.00000000E+00  0.00000000E+00  0.00000000E+00
