Ce12 C1 O25                             
   1.00000000000000     
     7.7074639999999999    0.0000000000000000    0.0000000000000000
    -3.8537319999999999    6.6748599999999998    0.0000000000000000
     0.0000000000000000    0.0000000000000000   28.3190309999999990
   Ce   O    C    O 
    12    24     1     1
Selective dynamics
Direct
  0.1642098010665326  0.3357901989334672  0.3881600510402425   T   T   T
  0.1641889561488530  0.8358623396327748  0.3880970065145108   T   T   T
  0.6641376603672251  0.3358110438511472  0.3880970065145108   T   T   T
  0.6641212075173109  0.8358787924826891  0.3879823739680554   T   T   T
 -0.0025563510993882  0.0021609128958292  0.6130780562870710   T   T   T
 -0.0026186265210029  0.5026186265210024  0.6131033217772173   T   T   T
  0.4985024626924954  0.0014975373075046  0.6140745603916491   T   T   T
  0.4978390871041708  0.5025563510993885  0.6130780562870710   T   T   T
  0.3313419144278820  0.1686580855721185  0.5007781418800332   T   T   T
  0.3311008729420769  0.6691405788543521  0.5006236279338867   T   T   T
  0.8308594211456479  0.1688991270579234  0.5006236279338867   T   T   T
  0.8309358926256917  0.6690641073743083  0.5005118834574198   T   T   T
  0.1642033865259162  0.3357966134740838  0.4716283988418943   T   T   T
  0.1636990683327765  0.8352840906340291  0.4717858279919864   T   T   T
  0.6647159093659709  0.3363009316672234  0.4717858279919864   T   T   T
  0.6646262006499219  0.8353737993500781  0.4717462429147038   T   T   T
 -0.0026546767872549  0.0026515079572557  0.3597562957067740   T   T   T
 -0.0025400677560617  0.5025400677560625  0.3598835489256840   T   T   T
  0.4974082030560389  0.0025917969439611  0.3596993659890532   T   T   T
  0.4973484920427438  0.5026546767872551  0.3597562957067740   T   T   T
  0.3326181425579849  0.1673818574420148  0.5850691892344341   T   T   T
  0.3317026527279188  0.6704984504939113  0.5848982788775023   T   T   T
  0.8295015495060887  0.1682973472720812  0.5848982788775023   T   T   T
  0.8305444272055055  0.6694555727944945  0.5838474230121177   T   T   T
 -0.0014436977569575  0.0036794570000241  0.5296593108454036   T   T   T
 -0.0019275608374180  0.5019275608374182  0.5296127909425071   T   T   T
  0.4981006167375622  0.0018993832624376  0.5293218813428184   T   T   T
  0.4963205429999753  0.5014436977569575  0.5296593108454036   T   T   T
  0.3309920414844076  0.1690079585155921  0.4168118482770454   T   T   T
  0.3308906917072424  0.6694568325863470  0.4168041795448624   T   T   T
  0.8305431674136530  0.1691093082927573  0.4168041795448624   T   T   T
  0.8308689656434680  0.6691310343565320  0.4166939282475379   T   T   T
  0.1648701555799593  0.3351298444200405  0.6415346671076950   T   T   T
  0.1585436512831292  0.8326756165213219  0.6418092839908607   T   T   T
  0.6673243834786781  0.3414563487168706  0.6418092839908607   T   T   T
  0.6655146673275212  0.8344853326724788  0.6417192910248730   T   T   T
  0.4542184736695787  0.0457815263304214  0.7142055120059606   T   T   T
  0.4097263154241541  0.0902736845758461  0.7487078442333388   T   T   T
 
  0.00000000E+00  0.00000000E+00  0.00000000E+00
  0.00000000E+00  0.00000000E+00  0.00000000E+00
  0.00000000E+00  0.00000000E+00  0.00000000E+00
  0.00000000E+00  0.00000000E+00  0.00000000E+00
  0.00000000E+00  0.00000000E+00  0.00000000E+00
  0.00000000E+00  0.00000000E+00  0.00000000E+00
  0.00000000E+00  0.00000000E+00  0.00000000E+00
  0.00000000E+00  0.00000000E+00  0.00000000E+00
  0.00000000E+00  0.00000000E+00  0.00000000E+00
  0.00000000E+00  0.00000000E+00  0.00000000E+00
  0.00000000E+00  0.00000000E+00  0.00000000E+00
  0.00000000E+00  0.00000000E+00  0.00000000E+00
  0.00000000E+00  0.00000000E+00  0.00000000E+00
  0.00000000E+00  0.00000000E+00  0.00000000E+00
  0.00000000E+00  0.00000000E+00  0.00000000E+00
  0.00000000E+00  0.00000000E+00  0.00000000E+00
  0.00000000E+00  0.00000000E+00  0.00000000E+00
  0.00000000E+00  0.00000000E+00  0.00000000E+00
  0.00000000E+00  0.00000000E+00  0.00000000E+00
  0.00000000E+00  0.00000000E+00  0.00000000E+00
  0.00000000E+00  0.00000000E+00  0.00000000E+00
  0.00000000E+00  0.00000000E+00  0.00000000E+00
  0.00000000E+00  0.00000000E+00  0.00000000E+00
  0.00000000E+00  0.00000000E+00  0.00000000E+00
  0.00000000E+00  0.00000000E+00  0.00000000E+00
  0.00000000E+00  0.00000000E+00  0.00000000E+00
  0.00000000E+00  0.00000000E+00  0.00000000E+00
  0.00000000E+00  0.00000000E+00  0.00000000E+00
  0.00000000E+00  0.00000000E+00  0.00000000E+00
  0.00000000E+00  0.00000000E+00  0.00000000E+00
  0.00000000E+00  0.00000000E+00  0.00000000E+00
  0.00000000E+00  0.00000000E+00  0.00000000E+00
  0.00000000E+00  0.00000000E+00  0.00000000E+00
  0.00000000E+00  0.00000000E+00  0.00000000E+00
  0.00000000E+00  0.00000000E+00  0.00000000E+00
  0.00000000E+00  0.00000000E+00  0.00000000E+00
  0.00000000E+00  0.00000000E+00  0.00000000E+00
  0.00000000E+00  0.00000000E+00  0.00000000E+00
