Ce12 C1 O25                             
   1.00000000000000     
     7.7074639999999999    0.0000000000000000    0.0000000000000000
    -3.8537319999999999    6.6748599999999998    0.0000000000000000
     0.0000000000000000    0.0000000000000000   28.3190309999999990
   Ce   O    C    O 
    12    24     1     1
Selective dynamics
Direct
  0.1666326379238619  0.3334651136960379  0.3865593848891886   T   T   T
  0.1667097784169306  0.8335528144286120  0.3866274509844259   T   T   T
  0.6667608343147506  0.3334942431513746  0.3865895753632492   T   T   T
  0.6667648735255406  0.8335909407342080  0.3866229886111577   T   T   T
  0.0008138296737061  0.0003426076156545  0.6112633955427372   T   T   T
  0.0001880480598958  0.5004049619896707  0.6112311239408559   T   T   T
  0.5004796447684811  0.0003355016465418  0.6113438381253782   T   T   T
  0.5003874353675291  0.5001864148475142  0.6113293847420636   T   T   T
  0.3336430348653557  0.1670052147926210  0.4989555449406138   T   T   T
  0.3334686389379726  0.6668955267668411  0.4989842671778114   T   T   T
  0.8335953809998687  0.1669520496610229  0.4989731760175200   T   T   T
  0.8335012600330114  0.6670023396083735  0.4989521458606397   T   T   T
  0.1669963691301974  0.3337862417408072  0.4700385267563494   T   T   T
  0.1667403324296809  0.8335318240322285  0.4701635515429874   T   T   T
  0.6668349786950482  0.3338113212004386  0.4700755103014551   T   T   T
  0.6668256070883779  0.8334054934320705  0.4701508399375512   T   T   T
 -0.0000116965961927  0.0004335321851592  0.3583661992962695   T   T   T
 -0.0001546876851518  0.4997436392869017  0.3583577804429611   T   T   T
  0.5002915968723071  0.0003753132916906  0.3584107563276508   T   T   T
  0.4999124270660273  0.5000160984057952  0.3584578338934620   T   T   T
  0.3333848123153274  0.1671242814792519  0.5825859952701024   T   T   T
  0.3329811210944174  0.6659589362655812  0.5826942078228369   T   T   T
  0.8347894279637540  0.1675336878521971  0.5827065740782712   T   T   T
  0.8339101468411610  0.6672290460422720  0.5826510110191203   T   T   T
  0.0003069137398127  0.0003427853038820  0.5278389928965089   T   T   T
 -0.0000337448082501  0.5002917791869153  0.5278333603429732   T   T   T
  0.5004624651602070  0.0002477339763756  0.5279567434918970   T   T   T
  0.5004234191723714  0.5004421351478889  0.5278923341442145   T   T   T
  0.3333521979597890  0.1663976326482783  0.4152389761960852   T   T   T
  0.3334227096743911  0.6673732325206324  0.4152152733912866   T   T   T
  0.8331092936925807  0.1666369790718276  0.4152817298121123   T   T   T
  0.8337400987971997  0.6671172962701378  0.4152454900976671   T   T   T
  0.1678321963528532  0.3334926727264685  0.6396767998275298   T   T   T
  0.1674444929010990  0.8338029677384825  0.6393455535209330   T   T   T
  0.6666881718964875  0.3335194477330284  0.6391471065574654   T   T   T
  0.6671228907446847  0.8340425345548226  0.6394577197837938   T   T   T
  0.0369888488518477  0.2519725924354796  0.7466343994707553   T   T   T
  0.9166372137630699  0.2936990665329112  0.7389344575821168   T   T   T
 
  0.00000000E+00  0.00000000E+00  0.00000000E+00
  0.00000000E+00  0.00000000E+00  0.00000000E+00
  0.00000000E+00  0.00000000E+00  0.00000000E+00
  0.00000000E+00  0.00000000E+00  0.00000000E+00
  0.00000000E+00  0.00000000E+00  0.00000000E+00
  0.00000000E+00  0.00000000E+00  0.00000000E+00
  0.00000000E+00  0.00000000E+00  0.00000000E+00
  0.00000000E+00  0.00000000E+00  0.00000000E+00
  0.00000000E+00  0.00000000E+00  0.00000000E+00
  0.00000000E+00  0.00000000E+00  0.00000000E+00
  0.00000000E+00  0.00000000E+00  0.00000000E+00
  0.00000000E+00  0.00000000E+00  0.00000000E+00
  0.00000000E+00  0.00000000E+00  0.00000000E+00
  0.00000000E+00  0.00000000E+00  0.00000000E+00
  0.00000000E+00  0.00000000E+00  0.00000000E+00
  0.00000000E+00  0.00000000E+00  0.00000000E+00
  0.00000000E+00  0.00000000E+00  0.00000000E+00
  0.00000000E+00  0.00000000E+00  0.00000000E+00
  0.00000000E+00  0.00000000E+00  0.00000000E+00
  0.00000000E+00  0.00000000E+00  0.00000000E+00
  0.00000000E+00  0.00000000E+00  0.00000000E+00
  0.00000000E+00  0.00000000E+00  0.00000000E+00
  0.00000000E+00  0.00000000E+00  0.00000000E+00
  0.00000000E+00  0.00000000E+00  0.00000000E+00
  0.00000000E+00  0.00000000E+00  0.00000000E+00
  0.00000000E+00  0.00000000E+00  0.00000000E+00
  0.00000000E+00  0.00000000E+00  0.00000000E+00
  0.00000000E+00  0.00000000E+00  0.00000000E+00
  0.00000000E+00  0.00000000E+00  0.00000000E+00
  0.00000000E+00  0.00000000E+00  0.00000000E+00
  0.00000000E+00  0.00000000E+00  0.00000000E+00
  0.00000000E+00  0.00000000E+00  0.00000000E+00
  0.00000000E+00  0.00000000E+00  0.00000000E+00
  0.00000000E+00  0.00000000E+00  0.00000000E+00
  0.00000000E+00  0.00000000E+00  0.00000000E+00
  0.00000000E+00  0.00000000E+00  0.00000000E+00
  0.00000000E+00  0.00000000E+00  0.00000000E+00
  0.00000000E+00  0.00000000E+00  0.00000000E+00
