Ce12 C1 O25                             
   1.00000000000000     
     7.7074639999999999    0.0000000000000000    0.0000000000000000
    -3.8537319999999999    6.6748599999999998    0.0000000000000000
     0.0000000000000000    0.0000000000000000   28.3190309999999990
   Ce   O    C    O 
    12    24     1     1
Selective dynamics
Direct
  0.1666520473792424  0.3327777019268844  0.3858673709074753   T   T   T
  0.1668252656845931  0.8330037009304462  0.3858424678351698   T   T   T
  0.6666141499185855  0.3327277861185509  0.3858721756227430   T   T   T
  0.6666904411212287  0.8330012676069870  0.3858376400592140   T   T   T
  0.0008297335153782  0.0006572198168873  0.6112227314811335   T   T   T
  0.0012758333378751  0.5010239350318594  0.6108329865185225   T   T   T
  0.5009336603781399  0.0008746727578344  0.6110476729411427   T   T   T
  0.5008423116164323  0.5010023501536298  0.6108780449622667   T   T   T
  0.3336932675432768  0.1666895747664991  0.4984164762210384   T   T   T
  0.3339012658041524  0.6670167097527138  0.4983403118759269   T   T   T
  0.8337587859889306  0.1666898152765929  0.4984153365161602   T   T   T
  0.8337443300718542  0.6667441212173911  0.4984934376662905   T   T   T
  0.1671412385142615  0.3335036209940078  0.4694434397897478   T   T   T
  0.1672660926006574  0.8331652833915796  0.4695649945847351   T   T   T
  0.6669873851062481  0.3333656891767846  0.4694453383756220   T   T   T
  0.6665526876566062  0.8331243437936841  0.4695664348488970   T   T   T
  0.0001186140667487 -0.0001695736552398  0.3575764774111609   T   T   T
  0.0000920356052934  0.4992375166991848  0.3576198839883794   T   T   T
  0.5000391045872336 -0.0004296543846141  0.3574628876422967   T   T   T
  0.4996377147943026  0.4992773798576539  0.3576295140330089   T   T   T
  0.3329536600223148  0.1670806579119042  0.5824345086771553   T   T   T
  0.3344530018921515  0.6678887691800032  0.5820826689026533   T   T   T
  0.8350441420651279  0.1670305185163750  0.5824260481149384   T   T   T
  0.8344162293780895  0.6677559873225032  0.5823851669756647   T   T   T
  0.0003136228796974 -0.0001897168239424  0.5273225497564100   T   T   T
  0.0001902174176386  0.4999979589688411  0.5274644724367031   T   T   T
  0.5010325391190207  0.0012286609825552  0.5275302099701861   T   T   T
  0.5006808514298742  0.4999853055388413  0.5274478944424129   T   T   T
  0.3334657823470319  0.1658084044107741  0.4145736880551367   T   T   T
  0.3336872532702174  0.6668843954212396  0.4145003324039505   T   T   T
  0.8328966543497452  0.1658501839809814  0.4145917764196794   T   T   T
  0.8335878528869750  0.6666128482099517  0.4145896154597083   T   T   T
  0.1685992821167074  0.3362768235018951  0.6395457285139128   T   T   T
  0.1681218454843827  0.8339443774746838  0.6391954471888668   T   T   T
  0.6674472147433476  0.3337059414440046  0.6390311304766565   T   T   T
  0.6667978944344528  0.8339357311026954  0.6392179993356177   T   T   T
  0.1098171289558834  0.2778705153507609  0.7462344262094535   T   T   T
  0.1806658619163009  0.4416951762766100  0.7578407133799598   T   T   T
 
  0.00000000E+00  0.00000000E+00  0.00000000E+00
  0.00000000E+00  0.00000000E+00  0.00000000E+00
  0.00000000E+00  0.00000000E+00  0.00000000E+00
  0.00000000E+00  0.00000000E+00  0.00000000E+00
  0.00000000E+00  0.00000000E+00  0.00000000E+00
  0.00000000E+00  0.00000000E+00  0.00000000E+00
  0.00000000E+00  0.00000000E+00  0.00000000E+00
  0.00000000E+00  0.00000000E+00  0.00000000E+00
  0.00000000E+00  0.00000000E+00  0.00000000E+00
  0.00000000E+00  0.00000000E+00  0.00000000E+00
  0.00000000E+00  0.00000000E+00  0.00000000E+00
  0.00000000E+00  0.00000000E+00  0.00000000E+00
  0.00000000E+00  0.00000000E+00  0.00000000E+00
  0.00000000E+00  0.00000000E+00  0.00000000E+00
  0.00000000E+00  0.00000000E+00  0.00000000E+00
  0.00000000E+00  0.00000000E+00  0.00000000E+00
  0.00000000E+00  0.00000000E+00  0.00000000E+00
  0.00000000E+00  0.00000000E+00  0.00000000E+00
  0.00000000E+00  0.00000000E+00  0.00000000E+00
  0.00000000E+00  0.00000000E+00  0.00000000E+00
  0.00000000E+00  0.00000000E+00  0.00000000E+00
  0.00000000E+00  0.00000000E+00  0.00000000E+00
  0.00000000E+00  0.00000000E+00  0.00000000E+00
  0.00000000E+00  0.00000000E+00  0.00000000E+00
  0.00000000E+00  0.00000000E+00  0.00000000E+00
  0.00000000E+00  0.00000000E+00  0.00000000E+00
  0.00000000E+00  0.00000000E+00  0.00000000E+00
  0.00000000E+00  0.00000000E+00  0.00000000E+00
  0.00000000E+00  0.00000000E+00  0.00000000E+00
  0.00000000E+00  0.00000000E+00  0.00000000E+00
  0.00000000E+00  0.00000000E+00  0.00000000E+00
  0.00000000E+00  0.00000000E+00  0.00000000E+00
  0.00000000E+00  0.00000000E+00  0.00000000E+00
  0.00000000E+00  0.00000000E+00  0.00000000E+00
  0.00000000E+00  0.00000000E+00  0.00000000E+00
  0.00000000E+00  0.00000000E+00  0.00000000E+00
  0.00000000E+00  0.00000000E+00  0.00000000E+00
  0.00000000E+00  0.00000000E+00  0.00000000E+00
