Ce12 C1 O25                             
   1.00000000000000     
     7.7074639999999999    0.0000000000000000    0.0000000000000000
    -3.8537319999999999    6.6748599999999998    0.0000000000000000
     0.0000000000000000    0.0000000000000000   28.3190309999999990
   Ce   O    C    O 
    12    24     1     1
Selective dynamics
Direct
  0.1666327943029303  0.3334651596718088  0.3871833652593762   T   T   T
  0.1666653008019877  0.8337007109913772  0.3872220455927263   T   T   T
  0.6664431800471974  0.3334574610158589  0.3872456657881593   T   T   T
  0.6665485115005810  0.8335683351502176  0.3872277330238288   T   T   T
 -0.0000940772532323  0.0003096959570173  0.6121416528117185   T   T   T
 -0.0005184109953250  0.5002007061869325  0.6119805220761183   T   T   T
  0.4999007822725081 -0.0000999179077035  0.6122121504285073   T   T   T
  0.4997571563950602  0.5003664789051608  0.6120641353027534   T   T   T
  0.3332069933453058  0.1668473769921557  0.4997411278717845   T   T   T
  0.3331056564670116  0.6668900396029714  0.4996801843016183   T   T   T
  0.8331330356920513  0.1669344664948890  0.4996961835673210   T   T   T
  0.8329991380570160  0.6670541527653947  0.4996792997553514   T   T   T
  0.1662769003855496  0.3337285915542522  0.4706730145264410   T   T   T
  0.1664693097895824  0.8334763716703047  0.4707836300571377   T   T   T
  0.6666128626520073  0.3335676597975216  0.4708009392949055   T   T   T
  0.6664732363655822  0.8336193776706907  0.4708675849212001   T   T   T
  0.0004770560483317  0.0004502839843667  0.3589317004470631   T   T   T
 -0.0001493902168022  0.5001876293797288  0.3590357558032891   T   T   T
  0.4997097303519919  0.0004959353371726  0.3589524041951346   T   T   T
  0.4997257242419796  0.4996520020382736  0.3589416166276689   T   T   T
  0.3329707679968055  0.1668368335519295  0.5837813287742766   T   T   T
  0.3346700362367785  0.6671167852032711  0.5832339336573628   T   T   T
  0.8327061964520268  0.1656782185619915  0.5833657733311521   T   T   T
  0.8318377007047089  0.6675950233745126  0.5833320948104751   T   T   T
  0.0005911200516025  0.0007732766620856  0.5285601229105903   T   T   T
 -0.0004502377035317  0.5003931081821688  0.5286444814735645   T   T   T
  0.4997119469715382  0.0003490896397333  0.5286612488102860   T   T   T
  0.4993341086940193  0.4994254397597149  0.5284856203865964   T   T   T
  0.3332734491516599  0.1668390359524349  0.4159616336517107   T   T   T
  0.3337304969748248  0.6672435671052052  0.4158183786964094   T   T   T
  0.8328580118091393  0.1663343416319667  0.4158305222357004   T   T   T
  0.8329719542114324  0.6671772976668914  0.4158662052658716   T   T   T
  0.1651595377708216  0.3352214981595800  0.6402279768887740   T   T   T
  0.1648125738021754  0.8298543243940032  0.6397922035882152   T   T   T
  0.6673938106952252  0.3340925879417584  0.6402901674436551   T   T   T
  0.6665065594044252  0.8340172121869629  0.6408214706718416   T   T   T
  0.2902230038188389  0.1508560993917117  0.7305966697444207   T   T   T
  0.2738794727061926  0.1756577433756790  0.7697854560069889   T   T   T
 
  0.00000000E+00  0.00000000E+00  0.00000000E+00
  0.00000000E+00  0.00000000E+00  0.00000000E+00
  0.00000000E+00  0.00000000E+00  0.00000000E+00
  0.00000000E+00  0.00000000E+00  0.00000000E+00
  0.00000000E+00  0.00000000E+00  0.00000000E+00
  0.00000000E+00  0.00000000E+00  0.00000000E+00
  0.00000000E+00  0.00000000E+00  0.00000000E+00
  0.00000000E+00  0.00000000E+00  0.00000000E+00
  0.00000000E+00  0.00000000E+00  0.00000000E+00
  0.00000000E+00  0.00000000E+00  0.00000000E+00
  0.00000000E+00  0.00000000E+00  0.00000000E+00
  0.00000000E+00  0.00000000E+00  0.00000000E+00
  0.00000000E+00  0.00000000E+00  0.00000000E+00
  0.00000000E+00  0.00000000E+00  0.00000000E+00
  0.00000000E+00  0.00000000E+00  0.00000000E+00
  0.00000000E+00  0.00000000E+00  0.00000000E+00
  0.00000000E+00  0.00000000E+00  0.00000000E+00
  0.00000000E+00  0.00000000E+00  0.00000000E+00
  0.00000000E+00  0.00000000E+00  0.00000000E+00
  0.00000000E+00  0.00000000E+00  0.00000000E+00
  0.00000000E+00  0.00000000E+00  0.00000000E+00
  0.00000000E+00  0.00000000E+00  0.00000000E+00
  0.00000000E+00  0.00000000E+00  0.00000000E+00
  0.00000000E+00  0.00000000E+00  0.00000000E+00
  0.00000000E+00  0.00000000E+00  0.00000000E+00
  0.00000000E+00  0.00000000E+00  0.00000000E+00
  0.00000000E+00  0.00000000E+00  0.00000000E+00
  0.00000000E+00  0.00000000E+00  0.00000000E+00
  0.00000000E+00  0.00000000E+00  0.00000000E+00
  0.00000000E+00  0.00000000E+00  0.00000000E+00
  0.00000000E+00  0.00000000E+00  0.00000000E+00
  0.00000000E+00  0.00000000E+00  0.00000000E+00
  0.00000000E+00  0.00000000E+00  0.00000000E+00
  0.00000000E+00  0.00000000E+00  0.00000000E+00
  0.00000000E+00  0.00000000E+00  0.00000000E+00
  0.00000000E+00  0.00000000E+00  0.00000000E+00
  0.00000000E+00  0.00000000E+00  0.00000000E+00
  0.00000000E+00  0.00000000E+00  0.00000000E+00
