Ce12 C1 O25                             
   1.00000000000000     
     7.7074639999999999    0.0000000000000000    0.0000000000000000
    -3.8537319999999999    6.6748599999999998    0.0000000000000000
     0.0000000000000000    0.0000000000000000   28.3190309999999990
   Ce   O    C    O 
    12    24     1     1
Selective dynamics
Direct
  0.1654813899944435  0.3334452135000851  0.3878313817344137   T   T   T
  0.1653118945787763  0.8334136868171789  0.3879975975891395   T   T   T
  0.6653148771492676  0.3334567205497324  0.3878642386874745   T   T   T
  0.6653651373793031  0.8333519104985010  0.3878493840353831   T   T   T
 -0.0019211039842104 -0.0001414227204919  0.6128310353575905   T   T   T
 -0.0021930469344850  0.4997708541921483  0.6128220657883429   T   T   T
  0.4984500907883816  0.0001553420626319  0.6127928737602754   T   T   T
  0.4990901945813016  0.5001013387990028  0.6142925088838556   T   T   T
  0.3321439275127347  0.1672267232691521  0.5005140313530742   T   T   T
  0.3321387510516664  0.6661863415126476  0.5005246607032215   T   T   T
  0.8318990148327582  0.1666613636045634  0.5003069357741290   T   T   T
  0.8314022832978616  0.6663715607775001  0.5004777851996559   T   T   T
  0.1646948353362719  0.3331025796581554  0.4714769974800072   T   T   T
  0.1650436160288503  0.8331304566980317  0.4713911271092547   T   T   T
  0.6657239270569051  0.3330926412954014  0.4715061820689850   T   T   T
  0.6656114305050058  0.8338823361351703  0.4715403108425184   T   T   T
 -0.0010688694671138  0.0000763037568290  0.3594774899676000   T   T   T
 -0.0011634548864766  0.5002867200026763  0.3595216230316956   T   T   T
  0.4986000689234286  0.0001075241518137  0.3595786286252166   T   T   T
  0.4987752589894204  0.4999996747931913  0.3593848458357494   T   T   T
  0.3323502922772208  0.1684166794963579  0.5848401037692068   T   T   T
  0.3327183637343472  0.6653115696040494  0.5848123362370898   T   T   T
  0.8315109958736625  0.1667026312289343  0.5838323722009877   T   T   T
  0.8302041685361787  0.6660316052721013  0.5846218755796672   T   T   T
 -0.0008631759845882 -0.0001645195522073  0.5294875436365616   T   T   T
 -0.0009320668519960  0.5008514281301949  0.5295073089565667   T   T   T
  0.4971175761028082 -0.0007386147959191  0.5294964607008443   T   T   T
  0.4985473301473922  0.4997290422249107  0.5291964514277182   T   T   T
  0.3322110500487792  0.1671162315555672  0.4166240870821077   T   T   T
  0.3323450368660240  0.6665483970317447  0.4165747651238242   T   T   T
  0.8321184026158032  0.1666707137463108  0.4164575540032490   T   T   T
  0.8315049266240647  0.6665492917968789  0.4165511880272225   T   T   T
  0.1596584354071939  0.3306574852331857  0.6419206575821881   T   T   T
  0.1649483030090438  0.8328344225285075  0.6413782091616986   T   T   T
  0.6664801748007657  0.3321911246893328  0.6415651402765038   T   T   T
  0.6672149577615082  0.8374647751969156  0.6415400065898677   T   T   T
  0.4424814960758823  0.5008250852594867  0.7159647004489212   T   T   T
  0.3894615102218181  0.4993247819997291  0.7537635353681923   T   T   T
 
  0.00000000E+00  0.00000000E+00  0.00000000E+00
  0.00000000E+00  0.00000000E+00  0.00000000E+00
  0.00000000E+00  0.00000000E+00  0.00000000E+00
  0.00000000E+00  0.00000000E+00  0.00000000E+00
  0.00000000E+00  0.00000000E+00  0.00000000E+00
  0.00000000E+00  0.00000000E+00  0.00000000E+00
  0.00000000E+00  0.00000000E+00  0.00000000E+00
  0.00000000E+00  0.00000000E+00  0.00000000E+00
  0.00000000E+00  0.00000000E+00  0.00000000E+00
  0.00000000E+00  0.00000000E+00  0.00000000E+00
  0.00000000E+00  0.00000000E+00  0.00000000E+00
  0.00000000E+00  0.00000000E+00  0.00000000E+00
  0.00000000E+00  0.00000000E+00  0.00000000E+00
  0.00000000E+00  0.00000000E+00  0.00000000E+00
  0.00000000E+00  0.00000000E+00  0.00000000E+00
  0.00000000E+00  0.00000000E+00  0.00000000E+00
  0.00000000E+00  0.00000000E+00  0.00000000E+00
  0.00000000E+00  0.00000000E+00  0.00000000E+00
  0.00000000E+00  0.00000000E+00  0.00000000E+00
  0.00000000E+00  0.00000000E+00  0.00000000E+00
  0.00000000E+00  0.00000000E+00  0.00000000E+00
  0.00000000E+00  0.00000000E+00  0.00000000E+00
  0.00000000E+00  0.00000000E+00  0.00000000E+00
  0.00000000E+00  0.00000000E+00  0.00000000E+00
  0.00000000E+00  0.00000000E+00  0.00000000E+00
  0.00000000E+00  0.00000000E+00  0.00000000E+00
  0.00000000E+00  0.00000000E+00  0.00000000E+00
  0.00000000E+00  0.00000000E+00  0.00000000E+00
  0.00000000E+00  0.00000000E+00  0.00000000E+00
  0.00000000E+00  0.00000000E+00  0.00000000E+00
  0.00000000E+00  0.00000000E+00  0.00000000E+00
  0.00000000E+00  0.00000000E+00  0.00000000E+00
  0.00000000E+00  0.00000000E+00  0.00000000E+00
  0.00000000E+00  0.00000000E+00  0.00000000E+00
  0.00000000E+00  0.00000000E+00  0.00000000E+00
  0.00000000E+00  0.00000000E+00  0.00000000E+00
  0.00000000E+00  0.00000000E+00  0.00000000E+00
  0.00000000E+00  0.00000000E+00  0.00000000E+00
