Ce12 C1 O25                             
   1.00000000000000     
     7.7074639999999999    0.0000000000000000    0.0000000000000000
    -3.8537319999999999    6.6748599999999998    0.0000000000000000
     0.0000000000000000    0.0000000000000000   28.3190309999999990
   Ce   O    C    O 
    12    24     1     1
Selective dynamics
Direct
  0.1648664533040896  0.3279711827617612  0.3868714877902334   T   T   T
  0.1651156947360777  0.8279480211993192  0.3869144434748910   T   T   T
  0.6652315022187876  0.3279345493742766  0.3868777486755579   T   T   T
  0.6650684317973152  0.8281482587555878  0.3870909396879312   T   T   T
  0.0012249902368457 -0.0033147744303474  0.6117862949922652   T   T   T
  0.0012366807476246  0.4974161182685407  0.6132540849972643   T   T   T
  0.5006768175200520 -0.0029545734418144  0.6118080082015040   T   T   T
  0.5010313519703501  0.4966646439501852  0.6119062816958701   T   T   T
  0.3330431280019089  0.1626023234437888  0.4993576215773198   T   T   T
  0.3324270995049233  0.6619618219445527  0.4996257438977107   T   T   T
  0.8333621386046598  0.1629446568192054  0.4996170120221015   T   T   T
  0.8332547198853972  0.6619681268209748  0.4995709367875795   T   T   T
  0.1663500592645504  0.3281347635705264  0.4705720820025562   T   T   T
  0.1662048933015522  0.8295077220957778  0.4706641204093765   T   T   T
  0.6652472110469673  0.3284524853812306  0.4706686953427092   T   T   T
  0.6661036582037245  0.8286765221327024  0.4705552183508944   T   T   T
 -0.0024146411982380 -0.0056130091583625  0.3587560336458808   T   T   T
 -0.0017255564128234  0.4942194688328219  0.3583936663551539   T   T   T
  0.4985678411835702 -0.0059098055652674  0.3586756670434294   T   T   T
  0.4982604104590208  0.4950736928669026  0.3587608757636538   T   T   T
  0.3345359021630623  0.1641075009685066  0.5828017861687196   T   T   T
  0.3322939298891600  0.6619553559766130  0.5838607494385006   T   T   T
  0.8351649980974324  0.1655212178571149  0.5837536509758554   T   T   T
  0.8346421622558939  0.6617973133222603  0.5837046890282427   T   T   T
 -0.0009197859323935 -0.0045326187777200  0.5285085246253717   T   T   T
  0.0003231692495332  0.4959481306846085  0.5281492765298369   T   T   T
  0.5002489555634543 -0.0046804869122139  0.5284862223888472   T   T   T
  0.5004184109018345  0.4971702129542799  0.5284596047239619   T   T   T
  0.3321092764278201  0.1612267156062197  0.4153937321074371   T   T   T
  0.3310316564356842  0.6612915090259278  0.4157521119255040   T   T   T
  0.8320362360187805  0.1622176592507953  0.4157587978687361   T   T   T
  0.8324682137631625  0.6609675783909941  0.4156265709997505   T   T   T
  0.1697567373461525  0.3272339211616379  0.6408091211397460   T   T   T
  0.1693902823065354  0.8337237154497900  0.6402710378886439   T   T   T
  0.6637052232681613  0.3279589059841758  0.6407303557369756   T   T   T
  0.6681323478030888  0.8304767769270763  0.6402517574240336   T   T   T
 -0.0225029349205151  0.4208604633888116  0.7140323442227954   T   T   T
  0.9484873349867973  0.3416119331187616  0.7497127040931556   T   T   T
 
  0.00000000E+00  0.00000000E+00  0.00000000E+00
  0.00000000E+00  0.00000000E+00  0.00000000E+00
  0.00000000E+00  0.00000000E+00  0.00000000E+00
  0.00000000E+00  0.00000000E+00  0.00000000E+00
  0.00000000E+00  0.00000000E+00  0.00000000E+00
  0.00000000E+00  0.00000000E+00  0.00000000E+00
  0.00000000E+00  0.00000000E+00  0.00000000E+00
  0.00000000E+00  0.00000000E+00  0.00000000E+00
  0.00000000E+00  0.00000000E+00  0.00000000E+00
  0.00000000E+00  0.00000000E+00  0.00000000E+00
  0.00000000E+00  0.00000000E+00  0.00000000E+00
  0.00000000E+00  0.00000000E+00  0.00000000E+00
  0.00000000E+00  0.00000000E+00  0.00000000E+00
  0.00000000E+00  0.00000000E+00  0.00000000E+00
  0.00000000E+00  0.00000000E+00  0.00000000E+00
  0.00000000E+00  0.00000000E+00  0.00000000E+00
  0.00000000E+00  0.00000000E+00  0.00000000E+00
  0.00000000E+00  0.00000000E+00  0.00000000E+00
  0.00000000E+00  0.00000000E+00  0.00000000E+00
  0.00000000E+00  0.00000000E+00  0.00000000E+00
  0.00000000E+00  0.00000000E+00  0.00000000E+00
  0.00000000E+00  0.00000000E+00  0.00000000E+00
  0.00000000E+00  0.00000000E+00  0.00000000E+00
  0.00000000E+00  0.00000000E+00  0.00000000E+00
  0.00000000E+00  0.00000000E+00  0.00000000E+00
  0.00000000E+00  0.00000000E+00  0.00000000E+00
  0.00000000E+00  0.00000000E+00  0.00000000E+00
  0.00000000E+00  0.00000000E+00  0.00000000E+00
  0.00000000E+00  0.00000000E+00  0.00000000E+00
  0.00000000E+00  0.00000000E+00  0.00000000E+00
  0.00000000E+00  0.00000000E+00  0.00000000E+00
  0.00000000E+00  0.00000000E+00  0.00000000E+00
  0.00000000E+00  0.00000000E+00  0.00000000E+00
  0.00000000E+00  0.00000000E+00  0.00000000E+00
  0.00000000E+00  0.00000000E+00  0.00000000E+00
  0.00000000E+00  0.00000000E+00  0.00000000E+00
  0.00000000E+00  0.00000000E+00  0.00000000E+00
  0.00000000E+00  0.00000000E+00  0.00000000E+00
