Ce12 C1 O25                             
   1.00000000000000     
     7.7074639999999999    0.0000000000000000    0.0000000000000000
    -3.8537319999999999    6.6748599999999998    0.0000000000000000
     0.0000000000000000    0.0000000000000000   28.3190309999999990
   Ce   O    C    O 
    12    24     1     1
Selective dynamics
Direct
  0.1660234341193513  0.3328363208447693  0.3870643982909959   T   T   T
  0.1660369127231549  0.8328415797067289  0.3870381440744828   T   T   T
  0.6659911529901719  0.3328062243116738  0.3870393006647371   T   T   T
  0.6659925606147072  0.8328252680015574  0.3870302596106647   T   T   T
 -0.0019270705796480 -0.0012981311337072  0.6119172311576155   T   T   T
 -0.0018265539542672  0.4988649014116295  0.6119224742603721   T   T   T
  0.4983061827713248 -0.0010752546165771  0.6122024084243769   T   T   T
  0.4984364193669669  0.4990221652586449  0.6119836281054951   T   T   T
  0.3322546649822397  0.1658167213792231  0.4995780605449514   T   T   T
  0.3322472302062523  0.6658970237915610  0.4995716376053637   T   T   T
  0.8320782061542107  0.1657501895359293  0.4995461896214069   T   T   T
  0.8321298260587314  0.6658396189974704  0.4995280552480297   T   T   T
  0.1655199269928627  0.3326465064717235  0.4705830217083553   T   T   T
  0.1655214247429095  0.8324166543320359  0.4705955705031066   T   T   T
  0.6658294483605567  0.3326801167928839  0.4706183368382975   T   T   T
  0.6656888691373517  0.8325942669286781  0.4706622899342499   T   T   T
 -0.0005007345158788 -0.0004530399477432  0.3587611180494089   T   T   T
 -0.0005776678588753  0.4995489465480972  0.3587914236513255   T   T   T
  0.4992245750408082 -0.0005071890947539  0.3587210495610330   T   T   T
  0.4992658037399725  0.4994015235694904  0.3587065835974548   T   T   T
  0.3319398682296582  0.1653692500934649  0.5835135431282622   T   T   T
  0.3324397697611920  0.6660240825732007  0.5833947055503760   T   T   T
  0.8312506438923110  0.1649136530244234  0.5833721312580340   T   T   T
  0.8310707515415754  0.6658915038517269  0.5831271899642085   T   T   T
 -0.0009694954747759 -0.0005746411475041  0.5283682767591034   T   T   T
 -0.0012476914303251  0.4989920386563249  0.5284377724812303   T   T   T
  0.4986514191997563 -0.0008426734998222  0.5284730150448584   T   T   T
  0.4983512477653667  0.4987445929516666  0.5283846567893781   T   T   T
  0.3326950169276321  0.1661493029354915  0.4156900066753144   T   T   T
  0.3327863564064901  0.6662126176253969  0.4156587130336603   T   T   T
  0.8324419098006264  0.1659599514918909  0.4156510723567096   T   T   T
  0.8324530809683020  0.6660954465184695  0.4156330662517679   T   T   T
  0.1650192251870885  0.3321149293051970  0.6403703267327817   T   T   T
  0.1629901537828084  0.8304822812415189  0.6399727781881422   T   T   T
  0.6659880130937835  0.3333377225312363  0.6401076110992205   T   T   T
  0.6649223760366747  0.8322323373324004  0.6405434694368333   T   T   T
  0.3206251222100122 -0.0067439211494414  0.7712187209319613   T   T   T
  0.3895436210089258  0.0371871125750423  0.7343377628664324   T   T   T
 
  0.00000000E+00  0.00000000E+00  0.00000000E+00
  0.00000000E+00  0.00000000E+00  0.00000000E+00
  0.00000000E+00  0.00000000E+00  0.00000000E+00
  0.00000000E+00  0.00000000E+00  0.00000000E+00
  0.00000000E+00  0.00000000E+00  0.00000000E+00
  0.00000000E+00  0.00000000E+00  0.00000000E+00
  0.00000000E+00  0.00000000E+00  0.00000000E+00
  0.00000000E+00  0.00000000E+00  0.00000000E+00
  0.00000000E+00  0.00000000E+00  0.00000000E+00
  0.00000000E+00  0.00000000E+00  0.00000000E+00
  0.00000000E+00  0.00000000E+00  0.00000000E+00
  0.00000000E+00  0.00000000E+00  0.00000000E+00
  0.00000000E+00  0.00000000E+00  0.00000000E+00
  0.00000000E+00  0.00000000E+00  0.00000000E+00
  0.00000000E+00  0.00000000E+00  0.00000000E+00
  0.00000000E+00  0.00000000E+00  0.00000000E+00
  0.00000000E+00  0.00000000E+00  0.00000000E+00
  0.00000000E+00  0.00000000E+00  0.00000000E+00
  0.00000000E+00  0.00000000E+00  0.00000000E+00
  0.00000000E+00  0.00000000E+00  0.00000000E+00
  0.00000000E+00  0.00000000E+00  0.00000000E+00
  0.00000000E+00  0.00000000E+00  0.00000000E+00
  0.00000000E+00  0.00000000E+00  0.00000000E+00
  0.00000000E+00  0.00000000E+00  0.00000000E+00
  0.00000000E+00  0.00000000E+00  0.00000000E+00
  0.00000000E+00  0.00000000E+00  0.00000000E+00
  0.00000000E+00  0.00000000E+00  0.00000000E+00
  0.00000000E+00  0.00000000E+00  0.00000000E+00
  0.00000000E+00  0.00000000E+00  0.00000000E+00
  0.00000000E+00  0.00000000E+00  0.00000000E+00
  0.00000000E+00  0.00000000E+00  0.00000000E+00
  0.00000000E+00  0.00000000E+00  0.00000000E+00
  0.00000000E+00  0.00000000E+00  0.00000000E+00
  0.00000000E+00  0.00000000E+00  0.00000000E+00
  0.00000000E+00  0.00000000E+00  0.00000000E+00
  0.00000000E+00  0.00000000E+00  0.00000000E+00
  0.00000000E+00  0.00000000E+00  0.00000000E+00
  0.00000000E+00  0.00000000E+00  0.00000000E+00
