Ce12 C1 O25                             
   1.00000000000000     
     7.7074639999999999    0.0000000000000000    0.0000000000000000
    -3.8537319999999999    6.6748599999999998    0.0000000000000000
     0.0000000000000000    0.0000000000000000   28.3190309999999990
   Ce   O    C    O 
    12    24     1     1
Selective dynamics
Direct
  0.1664252926141205  0.3337313378522420  0.3862277662006203   T   T   T
  0.1664649286428138  0.8337354248476977  0.3862676529257625   T   T   T
  0.6662684017015903  0.3336053076815372  0.3861991396761570   T   T   T
  0.6662607145577685  0.8337097564426041  0.3862773708550707   T   T   T
 -0.0008823371019240  0.0007431421611801  0.6114143600726536   T   T   T
 -0.0009343526265048  0.5006083228559229  0.6114503483455117   T   T   T
  0.4994705123514331  0.0006149038789062  0.6113820664997310   T   T   T
  0.4989227807149482  0.5010283053645413  0.6113651778812187   T   T   T
  0.3326673469896693  0.1673037153103832  0.4988778714330544   T   T   T
  0.3326658874965527  0.6672721113126622  0.4988632914328888   T   T   T
  0.8328700985752645  0.1672984409873475  0.4988520949743289   T   T   T
  0.8326826751190785  0.6673303711102557  0.4988624415648770   T   T   T
  0.1660553104128231  0.3338689357824825  0.4698491240555840   T   T   T
  0.1657975779101443  0.8337306821332590  0.4699680594140025   T   T   T
  0.6663116794438755  0.3342262340772171  0.4699150875445771   T   T   T
  0.6663296296395752  0.8338055302457970  0.4699981970406184   T   T   T
  0.0000094923558677  0.0005822052699821  0.3579187307699038   T   T   T
 -0.0002604876222996  0.5001841816328124  0.3579786134517078   T   T   T
  0.4997156851279036  0.0005036729100823  0.3578998849695893   T   T   T
  0.4994846706805440  0.4999578471930406  0.3578965406227558   T   T   T
  0.3334044692483230  0.1677036854129144  0.5828315963063294   T   T   T
  0.3329439802834248  0.6680398484385218  0.5827835386696738   T   T   T
  0.8317416980288540  0.1669907076107635  0.5826661707877520   T   T   T
  0.8319609189537883  0.6669245972059686  0.5826990634698468   T   T   T
 -0.0002728972189277  0.0008723492281607  0.5279341112703849   T   T   T
 -0.0006634138028352  0.5006001798502139  0.5278561463390214   T   T   T
  0.4993088647458070  0.0008170503792749  0.5277267743370941   T   T   T
  0.4989144788740034  0.5004301031525321  0.5278019470939967   T   T   T
  0.3329414320461159  0.1668508502257388  0.4150032339323624   T   T   T
  0.3332706213904378  0.6674175787854305  0.4149178318143587   T   T   T
  0.8327278568330569  0.1667133600671987  0.4149529381748756   T   T   T
  0.8329495281044684  0.6673206473979791  0.4148941489068766   T   T   T
  0.1646505213570171  0.3338814382381692  0.6391824259304707   T   T   T
  0.1655242191143324  0.8345552262396052  0.6398135537734800   T   T   T
  0.6664700887783513  0.3341668252523653  0.6399430901402147   T   T   T
  0.6662275401122313  0.8341314842212798  0.6397241939484682   T   T   T
  0.4873175592570163  0.2384435386021156  0.7518390835821712   T   T   T
  0.3860890269112909  0.2958561006418118  0.7377563317920068   T   T   T
 
  0.00000000E+00  0.00000000E+00  0.00000000E+00
  0.00000000E+00  0.00000000E+00  0.00000000E+00
  0.00000000E+00  0.00000000E+00  0.00000000E+00
  0.00000000E+00  0.00000000E+00  0.00000000E+00
  0.00000000E+00  0.00000000E+00  0.00000000E+00
  0.00000000E+00  0.00000000E+00  0.00000000E+00
  0.00000000E+00  0.00000000E+00  0.00000000E+00
  0.00000000E+00  0.00000000E+00  0.00000000E+00
  0.00000000E+00  0.00000000E+00  0.00000000E+00
  0.00000000E+00  0.00000000E+00  0.00000000E+00
  0.00000000E+00  0.00000000E+00  0.00000000E+00
  0.00000000E+00  0.00000000E+00  0.00000000E+00
  0.00000000E+00  0.00000000E+00  0.00000000E+00
  0.00000000E+00  0.00000000E+00  0.00000000E+00
  0.00000000E+00  0.00000000E+00  0.00000000E+00
  0.00000000E+00  0.00000000E+00  0.00000000E+00
  0.00000000E+00  0.00000000E+00  0.00000000E+00
  0.00000000E+00  0.00000000E+00  0.00000000E+00
  0.00000000E+00  0.00000000E+00  0.00000000E+00
  0.00000000E+00  0.00000000E+00  0.00000000E+00
  0.00000000E+00  0.00000000E+00  0.00000000E+00
  0.00000000E+00  0.00000000E+00  0.00000000E+00
  0.00000000E+00  0.00000000E+00  0.00000000E+00
  0.00000000E+00  0.00000000E+00  0.00000000E+00
  0.00000000E+00  0.00000000E+00  0.00000000E+00
  0.00000000E+00  0.00000000E+00  0.00000000E+00
  0.00000000E+00  0.00000000E+00  0.00000000E+00
  0.00000000E+00  0.00000000E+00  0.00000000E+00
  0.00000000E+00  0.00000000E+00  0.00000000E+00
  0.00000000E+00  0.00000000E+00  0.00000000E+00
  0.00000000E+00  0.00000000E+00  0.00000000E+00
  0.00000000E+00  0.00000000E+00  0.00000000E+00
  0.00000000E+00  0.00000000E+00  0.00000000E+00
  0.00000000E+00  0.00000000E+00  0.00000000E+00
  0.00000000E+00  0.00000000E+00  0.00000000E+00
  0.00000000E+00  0.00000000E+00  0.00000000E+00
  0.00000000E+00  0.00000000E+00  0.00000000E+00
  0.00000000E+00  0.00000000E+00  0.00000000E+00
