Ce12 C1 O25                             
   1.00000000000000     
     7.7074639999999999    0.0000000000000000    0.0000000000000000
    -3.8537319999999999    6.6748599999999998    0.0000000000000000
     0.0000000000000000    0.0000000000000000   28.3190309999999990
   Ce   O    C    O 
    12    24     1     1
Selective dynamics
Direct
  0.1676009039937287  0.3352701142321973  0.3860530782609606   T   T   T
  0.1674730674738977  0.8349955406482662  0.3860149783654613   T   T   T
  0.6674934010999998  0.3351968640059785  0.3860766563111924   T   T   T
  0.6673544258631097  0.8349838664178562  0.3860602540041078   T   T   T
  0.0012635878478486  0.0026719710908079  0.6112028899204051   T   T   T
  0.0013077844672268  0.5027575949531472  0.6110717016847135   T   T   T
  0.5010068356923566  0.0025869976876076  0.6111415434020157   T   T   T
  0.5011133751924598  0.5027682106852244  0.6108649822319967   T   T   T
  0.3340516910762757  0.1684897306083973  0.4986097917094399   T   T   T
  0.3341867278932926  0.6689139861838895  0.4985091387011685   T   T   T
  0.8342901933157371  0.1687154673897542  0.4986551372638231   T   T   T
  0.8345114310115244  0.6689925781538277  0.4985525716469935   T   T   T
  0.1673809818560849  0.3353178994283777  0.4696417991678212   T   T   T
  0.1674659850104207  0.8352027869390567  0.4696557951864770   T   T   T
  0.6677333737327529  0.3353341021597966  0.4696366631798101   T   T   T
  0.6676307852147387  0.8354894150138976  0.4697688522575715   T   T   T
  0.0009274321619043  0.0020100094971165  0.3577575627672255   T   T   T
  0.0006499763796623  0.5015264927839341  0.3577280625520278   T   T   T
  0.5009749625892658  0.0020572162278265  0.3577619047630778   T   T   T
  0.5007249913343962  0.5015089006748753  0.3578610338621728   T   T   T
  0.3345691985289286  0.1691766122778173  0.5825752414282254   T   T   T
  0.3340903044959578  0.6691388061189185  0.5823948943580850   T   T   T
  0.8345761338586587  0.1697779704556502  0.5824754043660091   T   T   T
  0.8345598372802180  0.6689076734704755  0.5823800775724872   T   T   T
  0.0013391180169915  0.0024984231016799  0.5275193276564001   T   T   T
  0.0010089065827209  0.5021858446410988  0.5275557182426912   T   T   T
  0.5008397803836534  0.0024583534631921  0.5275295260293998   T   T   T
  0.5007350230672273  0.5018297212312743  0.5274634109555619   T   T   T
  0.3342250629014544  0.1684671097249119  0.4147352840470346   T   T   T
  0.3341457759501594  0.6685211090513608  0.4147317630242168   T   T   T
  0.8341157630726087  0.1685263620200214  0.4147441315581434   T   T   T
  0.8341500193697604  0.6684272295847726  0.4146982459758275   T   T   T
  0.1680997588573446  0.3367029408545464  0.6394897828632214   T   T   T
  0.1674049966150832  0.8351223112217565  0.6394502968988830   T   T   T
  0.6683014150421018  0.3365313223234430  0.6394997774726964   T   T   T
  0.6676854978472760  0.8361121621528275  0.6390123316301276   T   T   T
  0.4754185126132988  0.4052743656925986  0.7507757330880742   T   T   T
  0.5751379823098789  0.5755299378318126  0.7481346555944481   T   T   T
 
  0.00000000E+00  0.00000000E+00  0.00000000E+00
  0.00000000E+00  0.00000000E+00  0.00000000E+00
  0.00000000E+00  0.00000000E+00  0.00000000E+00
  0.00000000E+00  0.00000000E+00  0.00000000E+00
  0.00000000E+00  0.00000000E+00  0.00000000E+00
  0.00000000E+00  0.00000000E+00  0.00000000E+00
  0.00000000E+00  0.00000000E+00  0.00000000E+00
  0.00000000E+00  0.00000000E+00  0.00000000E+00
  0.00000000E+00  0.00000000E+00  0.00000000E+00
  0.00000000E+00  0.00000000E+00  0.00000000E+00
  0.00000000E+00  0.00000000E+00  0.00000000E+00
  0.00000000E+00  0.00000000E+00  0.00000000E+00
  0.00000000E+00  0.00000000E+00  0.00000000E+00
  0.00000000E+00  0.00000000E+00  0.00000000E+00
  0.00000000E+00  0.00000000E+00  0.00000000E+00
  0.00000000E+00  0.00000000E+00  0.00000000E+00
  0.00000000E+00  0.00000000E+00  0.00000000E+00
  0.00000000E+00  0.00000000E+00  0.00000000E+00
  0.00000000E+00  0.00000000E+00  0.00000000E+00
  0.00000000E+00  0.00000000E+00  0.00000000E+00
  0.00000000E+00  0.00000000E+00  0.00000000E+00
  0.00000000E+00  0.00000000E+00  0.00000000E+00
  0.00000000E+00  0.00000000E+00  0.00000000E+00
  0.00000000E+00  0.00000000E+00  0.00000000E+00
  0.00000000E+00  0.00000000E+00  0.00000000E+00
  0.00000000E+00  0.00000000E+00  0.00000000E+00
  0.00000000E+00  0.00000000E+00  0.00000000E+00
  0.00000000E+00  0.00000000E+00  0.00000000E+00
  0.00000000E+00  0.00000000E+00  0.00000000E+00
  0.00000000E+00  0.00000000E+00  0.00000000E+00
  0.00000000E+00  0.00000000E+00  0.00000000E+00
  0.00000000E+00  0.00000000E+00  0.00000000E+00
  0.00000000E+00  0.00000000E+00  0.00000000E+00
  0.00000000E+00  0.00000000E+00  0.00000000E+00
  0.00000000E+00  0.00000000E+00  0.00000000E+00
  0.00000000E+00  0.00000000E+00  0.00000000E+00
  0.00000000E+00  0.00000000E+00  0.00000000E+00
  0.00000000E+00  0.00000000E+00  0.00000000E+00
