Ce12 C1 O25                             
   1.00000000000000     
     7.7074639999999999    0.0000000000000000    0.0000000000000000
    -3.8537319999999999    6.6748599999999998    0.0000000000000000
     0.0000000000000000    0.0000000000000000   28.3190309999999990
   Ce   O    C    O 
    12    24     1     1
Selective dynamics
Direct
  0.1663445847119886  0.3335551333370359  0.3866751187999795   T   T   T
  0.1663790878948333  0.8336699613811168  0.3866959305314555   T   T   T
  0.6663224809456196  0.3335851539510503  0.3867197972401138   T   T   T
  0.6663809213033864  0.8336478386876658  0.3867177100950418   T   T   T
 -0.0010553817629900  0.0006385606473364  0.6114731290060176   T   T   T
 -0.0003968575901939  0.5007214012116529  0.6115832523961233   T   T   T
  0.4989866492402337  0.0004346306749523  0.6115810701618412   T   T   T
  0.4993737131382885  0.5006954669073463  0.6115381824836409   T   T   T
  0.3328206101732841  0.1671818867017505  0.4991530616621374   T   T   T
  0.3327255044368684  0.6670689733390586  0.4991408155246255   T   T   T
  0.8327083765953874  0.1671468979701587  0.4991548143818457   T   T   T
  0.8329524611961973  0.6672678535533435  0.4991623007830107   T   T   T
  0.1664871109765070  0.3339234421976029  0.4702226600976205   T   T   T
  0.1661854970441265  0.8338069008967967  0.4702917427374835   T   T   T
  0.6660064367570627  0.3338172622605801  0.4702507682483145   T   T   T
  0.6660734488935836  0.8335804355057796  0.4702219668055959   T   T   T
 -0.0002408215973472  0.0004867276845342  0.3583425459671576   T   T   T
 -0.0004621418511174  0.4999631992848262  0.3584526723754543   T   T   T
  0.4999042766032290  0.0004724532364000  0.3584329736674496   T   T   T
  0.4996595346568954  0.5000811812841749  0.3584784828559760   T   T   T
  0.3319961311183135  0.1669654304334073  0.5828839165597066   T   T   T
  0.3319172178386198  0.6668077317743145  0.5827930167696926   T   T   T
  0.8330634021234303  0.1673272940286454  0.5829902902491167   T   T   T
  0.8337399551253849  0.6681165562461044  0.5829511022622833   T   T   T
 -0.0007428396821500  0.0006964702644924  0.5279953781151716   T   T   T
 -0.0008674587523421  0.5002827529483129  0.5279957425355365   T   T   T
  0.4994091165175687  0.0004454498722854  0.5281246760826093   T   T   T
  0.4998316062505618  0.5007426346810421  0.5281084214704137   T   T   T
  0.3328617334537577  0.1667356134057265  0.4153701449876128   T   T   T
  0.3330048287696581  0.6671784200688460  0.4153226472165508   T   T   T
  0.8329154232563870  0.1668461934394284  0.4153977955918516   T   T   T
  0.8331614365633931  0.6671891051436728  0.4153211888576164   T   T   T
  0.1665502423722965  0.3344686554178289  0.6399418974845456   T   T   T
  0.1669889012881846  0.8343130196898418  0.6399886589506488   T   T   T
  0.6660074851478220  0.3341185549024443  0.6396417392984117   T   T   T
  0.6647817261044645  0.8334057261503535  0.6394252243823295   T   T   T
  0.1850981896327324  0.0801455171545639  0.7436952410704506   T   T   T
  0.0182934111060695  0.0135815136655295  0.7355539222945626   T   T   T
 
  0.00000000E+00  0.00000000E+00  0.00000000E+00
  0.00000000E+00  0.00000000E+00  0.00000000E+00
  0.00000000E+00  0.00000000E+00  0.00000000E+00
  0.00000000E+00  0.00000000E+00  0.00000000E+00
  0.00000000E+00  0.00000000E+00  0.00000000E+00
  0.00000000E+00  0.00000000E+00  0.00000000E+00
  0.00000000E+00  0.00000000E+00  0.00000000E+00
  0.00000000E+00  0.00000000E+00  0.00000000E+00
  0.00000000E+00  0.00000000E+00  0.00000000E+00
  0.00000000E+00  0.00000000E+00  0.00000000E+00
  0.00000000E+00  0.00000000E+00  0.00000000E+00
  0.00000000E+00  0.00000000E+00  0.00000000E+00
  0.00000000E+00  0.00000000E+00  0.00000000E+00
  0.00000000E+00  0.00000000E+00  0.00000000E+00
  0.00000000E+00  0.00000000E+00  0.00000000E+00
  0.00000000E+00  0.00000000E+00  0.00000000E+00
  0.00000000E+00  0.00000000E+00  0.00000000E+00
  0.00000000E+00  0.00000000E+00  0.00000000E+00
  0.00000000E+00  0.00000000E+00  0.00000000E+00
  0.00000000E+00  0.00000000E+00  0.00000000E+00
  0.00000000E+00  0.00000000E+00  0.00000000E+00
  0.00000000E+00  0.00000000E+00  0.00000000E+00
  0.00000000E+00  0.00000000E+00  0.00000000E+00
  0.00000000E+00  0.00000000E+00  0.00000000E+00
  0.00000000E+00  0.00000000E+00  0.00000000E+00
  0.00000000E+00  0.00000000E+00  0.00000000E+00
  0.00000000E+00  0.00000000E+00  0.00000000E+00
  0.00000000E+00  0.00000000E+00  0.00000000E+00
  0.00000000E+00  0.00000000E+00  0.00000000E+00
  0.00000000E+00  0.00000000E+00  0.00000000E+00
  0.00000000E+00  0.00000000E+00  0.00000000E+00
  0.00000000E+00  0.00000000E+00  0.00000000E+00
  0.00000000E+00  0.00000000E+00  0.00000000E+00
  0.00000000E+00  0.00000000E+00  0.00000000E+00
  0.00000000E+00  0.00000000E+00  0.00000000E+00
  0.00000000E+00  0.00000000E+00  0.00000000E+00
  0.00000000E+00  0.00000000E+00  0.00000000E+00
  0.00000000E+00  0.00000000E+00  0.00000000E+00
