Ce12 C1 O25                             
   1.00000000000000     
     7.7074639999999999    0.0000000000000000    0.0000000000000000
    -3.8537319999999999    6.6748599999999998    0.0000000000000000
     0.0000000000000000    0.0000000000000000   28.3190309999999990
   Ce   O    C    O 
    12    24     1     1
Selective dynamics
Direct
  0.1676050648313136  0.3341907712680619  0.3865389071740969   T   T   T
  0.1675981987063186  0.8341646726712173  0.3864496594654272   T   T   T
  0.6675935977938151  0.3341561508320973  0.3864444766061865   T   T   T
  0.6675821303669509  0.8341738360259059  0.3864682814325340   T   T   T
  0.0012317475725758  0.0002861097520420  0.6113266675992983   T   T   T
  0.0016244836487443  0.5016928523021699  0.6115240160841343   T   T   T
  0.5016718551100160  0.0013679758914485  0.6114641190115838   T   T   T
  0.5018224500067828  0.5014393351915717  0.6113464364105073   T   T   T
  0.3344690231442279  0.1675542070579654  0.4989967911325999   T   T   T
  0.3344429844747507  0.6676641391700147  0.4990169885904855   T   T   T
  0.8345472313171627  0.1676489679442108  0.4990324220445244   T   T   T
  0.8343768379774594  0.6674093546335509  0.4989082647868667   T   T   T
  0.1677147183043653  0.3341587055049954  0.4701398414475447   T   T   T
  0.1677615457215880  0.8342514476765536  0.4700238843116447   T   T   T
  0.6677565481084938  0.3342581469558253  0.4699953631464184   T   T   T
  0.6677962946642826  0.8342418183523856  0.4700139710725233   T   T   T
  0.0009119203992578  0.0007010129428596  0.3582282794175305   T   T   T
  0.0010051893810799  0.5010400272567046  0.3581945357114371   T   T   T
  0.5009272764288717  0.0008270121513388  0.3581773746654258   T   T   T
  0.5010811081572708  0.5010079015550781  0.3581973366040584   T   T   T
  0.3349077899483372  0.1676817262794828  0.5827139585955993   T   T   T
  0.3348712558210910  0.6683103269032934  0.5827330448853877   T   T   T
  0.8349992618212421  0.1679506853649029  0.5828413954838498   T   T   T
  0.8345220763318957  0.6673273459559885  0.5827473927028799   T   T   T
  0.0009855754618687  0.0004644331585874  0.5278729140613477   T   T   T
  0.0011624535588791  0.5011178959914289  0.5278886748585139   T   T   T
  0.5014960109465428  0.0011915793325161  0.5278329226810036   T   T   T
  0.5013175847008521  0.5011139820893608  0.5278482537270816   T   T   T
  0.3342773407941024  0.1676236368791027  0.4151242392572004   T   T   T
  0.3342385439451137  0.6673827615118737  0.4151783934643002   T   T   T
  0.8344838957260317  0.1676460107445107  0.4151146263438517   T   T   T
  0.8343498887415731  0.6675226652062330  0.4151222864664727   T   T   T
  0.1694437601552846  0.3352040340912321  0.6393337329636024   T   T   T
  0.1678195312303366  0.8346275020266870  0.6395512016758655   T   T   T
  0.6683005184539483  0.3344874316128920  0.6398160531100279   T   T   T
  0.6683578140362803  0.8344549990353894  0.6396152724410862   T   T   T
  0.0683220076574579  0.3121141767237443  0.7407979552269476   T   T   T
  0.0233014845538322  0.1471213619567822  0.7451700653401524   T   T   T
 
  0.00000000E+00  0.00000000E+00  0.00000000E+00
  0.00000000E+00  0.00000000E+00  0.00000000E+00
  0.00000000E+00  0.00000000E+00  0.00000000E+00
  0.00000000E+00  0.00000000E+00  0.00000000E+00
  0.00000000E+00  0.00000000E+00  0.00000000E+00
  0.00000000E+00  0.00000000E+00  0.00000000E+00
  0.00000000E+00  0.00000000E+00  0.00000000E+00
  0.00000000E+00  0.00000000E+00  0.00000000E+00
  0.00000000E+00  0.00000000E+00  0.00000000E+00
  0.00000000E+00  0.00000000E+00  0.00000000E+00
  0.00000000E+00  0.00000000E+00  0.00000000E+00
  0.00000000E+00  0.00000000E+00  0.00000000E+00
  0.00000000E+00  0.00000000E+00  0.00000000E+00
  0.00000000E+00  0.00000000E+00  0.00000000E+00
  0.00000000E+00  0.00000000E+00  0.00000000E+00
  0.00000000E+00  0.00000000E+00  0.00000000E+00
  0.00000000E+00  0.00000000E+00  0.00000000E+00
  0.00000000E+00  0.00000000E+00  0.00000000E+00
  0.00000000E+00  0.00000000E+00  0.00000000E+00
  0.00000000E+00  0.00000000E+00  0.00000000E+00
  0.00000000E+00  0.00000000E+00  0.00000000E+00
  0.00000000E+00  0.00000000E+00  0.00000000E+00
  0.00000000E+00  0.00000000E+00  0.00000000E+00
  0.00000000E+00  0.00000000E+00  0.00000000E+00
  0.00000000E+00  0.00000000E+00  0.00000000E+00
  0.00000000E+00  0.00000000E+00  0.00000000E+00
  0.00000000E+00  0.00000000E+00  0.00000000E+00
  0.00000000E+00  0.00000000E+00  0.00000000E+00
  0.00000000E+00  0.00000000E+00  0.00000000E+00
  0.00000000E+00  0.00000000E+00  0.00000000E+00
  0.00000000E+00  0.00000000E+00  0.00000000E+00
  0.00000000E+00  0.00000000E+00  0.00000000E+00
  0.00000000E+00  0.00000000E+00  0.00000000E+00
  0.00000000E+00  0.00000000E+00  0.00000000E+00
  0.00000000E+00  0.00000000E+00  0.00000000E+00
  0.00000000E+00  0.00000000E+00  0.00000000E+00
  0.00000000E+00  0.00000000E+00  0.00000000E+00
  0.00000000E+00  0.00000000E+00  0.00000000E+00
