Ce12 C1 O25                             
   1.00000000000000     
     7.7074639999999999    0.0000000000000000    0.0000000000000000
    -3.8537319999999999    6.6748599999999998    0.0000000000000000
     0.0000000000000000    0.0000000000000000   28.3190309999999990
   Ce   O    C    O 
    12    24     1     1
Selective dynamics
Direct
  0.1672431051125587  0.3343868555355844  0.3861510508716170   T   T   T
  0.1672825941498985  0.8344000917195170  0.3861305802312531   T   T   T
  0.6672550028729345  0.3343581320723417  0.3861482280456717   T   T   T
  0.6672439485139476  0.8344100657970146  0.3861312846145366   T   T   T
  0.0015417564664792  0.0027393237871925  0.6114300245467731   T   T   T
  0.0014644105473879  0.5027487462504577  0.6113783577235976   T   T   T
  0.5014960032372729  0.0027249802919404  0.6114518219512478   T   T   T
  0.5016442784962686  0.5029424447068007  0.6111500437585219   T   T   T
  0.3343490440494279  0.1685033452390517  0.4987266800572522   T   T   T
  0.3342857404169521  0.6685476972415717  0.4987296641861217   T   T   T
  0.8343870512823501  0.1685742382897655  0.4987613764997387   T   T   T
  0.8344442437933101  0.6685765073351166  0.4987280693845577   T   T   T
  0.1676017526024242  0.3349149678594032  0.4698679378063273   T   T   T
  0.1676474012063160  0.8351220002806237  0.4698523065910440   T   T   T
  0.6674644401143610  0.3348995400545990  0.4698809855010098   T   T   T
  0.6675969800549280  0.8350321925578270  0.4698149977147573   T   T   T
  0.0004581913952235  0.0008429222627868  0.3578060593219114   T   T   T
  0.0005690597588773  0.5009873267691666  0.3577642576010402   T   T   T
  0.5004999076617690  0.0008130774482395  0.3577927635603696   T   T   T
  0.5005709556837016  0.5010755891131410  0.3577690061705774   T   T   T
  0.3348835804206098  0.1693682581950745  0.5827316146408994   T   T   T
  0.3346837122294756  0.6691522896231594  0.5826845457479706   T   T   T
  0.8348237110651299  0.1694617547338463  0.5827437170840734   T   T   T
  0.8347156842240226  0.6691570785326636  0.5826526187173460   T   T   T
  0.0011904633982120  0.0021674362080031  0.5277129502918538   T   T   T
  0.0011575987573481  0.5020889288826458  0.5276345246943632   T   T   T
  0.5011627328556049  0.0020717696395178  0.5277312562815640   T   T   T
  0.5011525015897762  0.5021920906458464  0.5276124767698730   T   T   T
  0.3340059022340265  0.1678323763271876  0.4148086324527004   T   T   T
  0.3338405149201398  0.6677691718867114  0.4148127600146642   T   T   T
  0.8340311304431307  0.1679796259243749  0.4147852451258657   T   T   T
  0.8340424393167605  0.6677344391341850  0.4147948339192633   T   T   T
  0.1683632501291271  0.3363075963374018  0.6398223343337043   T   T   T
  0.1680647967604195  0.8358647965727625  0.6396595708996219   T   T   T
  0.6682630642285732  0.3364683407720547  0.6397870352482717   T   T   T
  0.6684876995042716  0.8364825215015658  0.6394261568258617   T   T   T
  0.4333164466697068  0.4104520614497061  0.7473580301688202   T   T   T
  0.5032019038372596  0.5808274190211463  0.7455662006453546   T   T   T
 
  0.00000000E+00  0.00000000E+00  0.00000000E+00
  0.00000000E+00  0.00000000E+00  0.00000000E+00
  0.00000000E+00  0.00000000E+00  0.00000000E+00
  0.00000000E+00  0.00000000E+00  0.00000000E+00
  0.00000000E+00  0.00000000E+00  0.00000000E+00
  0.00000000E+00  0.00000000E+00  0.00000000E+00
  0.00000000E+00  0.00000000E+00  0.00000000E+00
  0.00000000E+00  0.00000000E+00  0.00000000E+00
  0.00000000E+00  0.00000000E+00  0.00000000E+00
  0.00000000E+00  0.00000000E+00  0.00000000E+00
  0.00000000E+00  0.00000000E+00  0.00000000E+00
  0.00000000E+00  0.00000000E+00  0.00000000E+00
  0.00000000E+00  0.00000000E+00  0.00000000E+00
  0.00000000E+00  0.00000000E+00  0.00000000E+00
  0.00000000E+00  0.00000000E+00  0.00000000E+00
  0.00000000E+00  0.00000000E+00  0.00000000E+00
  0.00000000E+00  0.00000000E+00  0.00000000E+00
  0.00000000E+00  0.00000000E+00  0.00000000E+00
  0.00000000E+00  0.00000000E+00  0.00000000E+00
  0.00000000E+00  0.00000000E+00  0.00000000E+00
  0.00000000E+00  0.00000000E+00  0.00000000E+00
  0.00000000E+00  0.00000000E+00  0.00000000E+00
  0.00000000E+00  0.00000000E+00  0.00000000E+00
  0.00000000E+00  0.00000000E+00  0.00000000E+00
  0.00000000E+00  0.00000000E+00  0.00000000E+00
  0.00000000E+00  0.00000000E+00  0.00000000E+00
  0.00000000E+00  0.00000000E+00  0.00000000E+00
  0.00000000E+00  0.00000000E+00  0.00000000E+00
  0.00000000E+00  0.00000000E+00  0.00000000E+00
  0.00000000E+00  0.00000000E+00  0.00000000E+00
  0.00000000E+00  0.00000000E+00  0.00000000E+00
  0.00000000E+00  0.00000000E+00  0.00000000E+00
  0.00000000E+00  0.00000000E+00  0.00000000E+00
  0.00000000E+00  0.00000000E+00  0.00000000E+00
  0.00000000E+00  0.00000000E+00  0.00000000E+00
  0.00000000E+00  0.00000000E+00  0.00000000E+00
  0.00000000E+00  0.00000000E+00  0.00000000E+00
  0.00000000E+00  0.00000000E+00  0.00000000E+00
