Ce12 C1 O25                             
   1.00000000000000     
     7.7074639999999999    0.0000000000000000    0.0000000000000000
    -3.8537319999999999    6.6748599999999998    0.0000000000000000
     0.0000000000000000    0.0000000000000000   28.3190309999999990
   Ce   O    C    O 
    12    24     1     1
Selective dynamics
Direct
  0.1671887044762103  0.3341219678319868  0.3863646883785175   T   T   T
  0.1670735845227816  0.8341101873454507  0.3862877924282715   T   T   T
  0.6671998228031960  0.3342291759410503  0.3862644890221030   T   T   T
  0.6672127133543890  0.8340932125741214  0.3862714392971646   T   T   T
 -0.0004981191892725  0.0000489672805387  0.6110010334627459   T   T   T
 -0.0001225785762043  0.5011657102756093  0.6111262971857464   T   T   T
  0.5002999345205591  0.0011054585686929  0.6114126390703818   T   T   T
  0.5005630419078452  0.5010170636118513  0.6113900486456416   T   T   T
  0.3337654193425674  0.1675068306456187  0.4987832141119778   T   T   T
  0.3337639820674282  0.6676274630918378  0.4987943846617521   T   T   T
  0.8334290780251510  0.1673898373307161  0.4987488056125542   T   T   T
  0.8334330047980436  0.6672942564991377  0.4986326287973813   T   T   T
  0.1669445169136535  0.3342162851266993  0.4701203506166051   T   T   T
  0.1671499709185515  0.8340730902291357  0.4699006876169139   T   T   T
  0.6669882827170899  0.3339247456581289  0.4699154437030449   T   T   T
  0.6668235927050792  0.8342361774024656  0.4699323177588091   T   T   T
  0.0005198767331255  0.0005279666725791  0.3580861236662384   T   T   T
  0.0005986300477300  0.5011628416924644  0.3580615161913066   T   T   T
  0.5004115190535035  0.0007330761257363  0.3580330493678289   T   T   T
  0.5007481801373430  0.5009872604781608  0.3579996897866889   T   T   T
  0.3333648242502344  0.1675113153904475  0.5826855540571481   T   T   T
  0.3339006824512512  0.6680344750967145  0.5826300693166560   T   T   T
  0.8333466415979135  0.1669554043421217  0.5824951954182430   T   T   T
  0.8332116207293551  0.6676313586070004  0.5826155508892157   T   T   T
  0.0000580771309095  0.0000897172801817  0.5275835844776348   T   T   T
  0.0001063781973761  0.5012521997237814  0.5276873155593746   T   T   T
  0.5000766814366671  0.0009296400184675  0.5276240770290002   T   T   T
  0.5006476007555072  0.5010262128603028  0.5277093005245838   T   T   T
  0.3338168489456831  0.1677641385965606  0.4149357676265629   T   T   T
  0.3337981814279853  0.6671945372388458  0.4149795209833628   T   T   T
  0.8340227906263626  0.1675946433056710  0.4148647956406469   T   T   T
  0.8336023412515053  0.6673955276145830  0.4149951045479455   T   T   T
  0.1662623824149290  0.3348666629972001  0.6391617124798019   T   T   T
  0.1661225005427791  0.8340513636460622  0.6396150416282838   T   T   T
  0.6677363678513253  0.3346030043041278  0.6392596993948116   T   T   T
  0.6668753981509530  0.8340133417817519  0.6396029694253538   T   T   T
  0.2218274173253200  0.2350960296763945  0.7388214555402589   T   T   T
  0.0640061076351711  0.1788628531378095  0.7533966460794396   T   T   T
 
  0.00000000E+00  0.00000000E+00  0.00000000E+00
  0.00000000E+00  0.00000000E+00  0.00000000E+00
  0.00000000E+00  0.00000000E+00  0.00000000E+00
  0.00000000E+00  0.00000000E+00  0.00000000E+00
  0.00000000E+00  0.00000000E+00  0.00000000E+00
  0.00000000E+00  0.00000000E+00  0.00000000E+00
  0.00000000E+00  0.00000000E+00  0.00000000E+00
  0.00000000E+00  0.00000000E+00  0.00000000E+00
  0.00000000E+00  0.00000000E+00  0.00000000E+00
  0.00000000E+00  0.00000000E+00  0.00000000E+00
  0.00000000E+00  0.00000000E+00  0.00000000E+00
  0.00000000E+00  0.00000000E+00  0.00000000E+00
  0.00000000E+00  0.00000000E+00  0.00000000E+00
  0.00000000E+00  0.00000000E+00  0.00000000E+00
  0.00000000E+00  0.00000000E+00  0.00000000E+00
  0.00000000E+00  0.00000000E+00  0.00000000E+00
  0.00000000E+00  0.00000000E+00  0.00000000E+00
  0.00000000E+00  0.00000000E+00  0.00000000E+00
  0.00000000E+00  0.00000000E+00  0.00000000E+00
  0.00000000E+00  0.00000000E+00  0.00000000E+00
  0.00000000E+00  0.00000000E+00  0.00000000E+00
  0.00000000E+00  0.00000000E+00  0.00000000E+00
  0.00000000E+00  0.00000000E+00  0.00000000E+00
  0.00000000E+00  0.00000000E+00  0.00000000E+00
  0.00000000E+00  0.00000000E+00  0.00000000E+00
  0.00000000E+00  0.00000000E+00  0.00000000E+00
  0.00000000E+00  0.00000000E+00  0.00000000E+00
  0.00000000E+00  0.00000000E+00  0.00000000E+00
  0.00000000E+00  0.00000000E+00  0.00000000E+00
  0.00000000E+00  0.00000000E+00  0.00000000E+00
  0.00000000E+00  0.00000000E+00  0.00000000E+00
  0.00000000E+00  0.00000000E+00  0.00000000E+00
  0.00000000E+00  0.00000000E+00  0.00000000E+00
  0.00000000E+00  0.00000000E+00  0.00000000E+00
  0.00000000E+00  0.00000000E+00  0.00000000E+00
  0.00000000E+00  0.00000000E+00  0.00000000E+00
  0.00000000E+00  0.00000000E+00  0.00000000E+00
  0.00000000E+00  0.00000000E+00  0.00000000E+00
