Ce12 C1 O25                             
   1.00000000000000     
     7.7074639999999999    0.0000000000000000    0.0000000000000000
    -3.8537319999999999    6.6748599999999998    0.0000000000000000
     0.0000000000000000    0.0000000000000000   28.3190309999999990
   Ce   O    C    O 
    12    24     1     1
Selective dynamics
Direct
  0.1657192738875568  0.3315664667951835  0.3869453120684326   T   T   T
  0.1657253278165055  0.8314235683949882  0.3869630000719210   T   T   T
  0.6658523970187604  0.3315494592375728  0.3869620033338342   T   T   T
  0.6657742947694787  0.8315324212819454  0.3871294041554066   T   T   T
  0.0015055855376460 -0.0006815997933299  0.6118238210595907   T   T   T
  0.0005943721063273  0.4993171168030092  0.6133103069623527   T   T   T
  0.5014140830364928 -0.0002801455045959  0.6117711784436508   T   T   T
  0.5017075019310533  0.4992469590758271  0.6117779509702725   T   T   T
  0.3334466711871683  0.1654272896397801  0.4993873884331148   T   T   T
  0.3327894785046084  0.6650183338117361  0.4996529569412021   T   T   T
  0.8337478974956072  0.1658781044845586  0.4996032981023206   T   T   T
  0.8337413237746450  0.6651706876179637  0.4995763027729349   T   T   T
  0.1667189574265213  0.3315780373038982  0.4706286479630589   T   T   T
  0.1668825696785709  0.8325969717519642  0.4705759360156139   T   T   T
  0.6658321672413142  0.3314830927555168  0.4705755498462598   T   T   T
  0.6665602549123831  0.8321004140459556  0.4704665212308184   T   T   T
 -0.0012759087910403 -0.0020951960247478  0.3587295691715011   T   T   T
 -0.0010465972923131  0.4981196410105460  0.3585529128269848   T   T   T
  0.4991325661321785 -0.0019612585078866  0.3586991029540135   T   T   T
  0.4991745950197388  0.4983371276816574  0.3587171796890988   T   T   T
  0.3348122891530557  0.1664787178258274  0.5827230160506310   T   T   T
  0.3321680540697917  0.6643860850574375  0.5837989682610697   T   T   T
  0.8355922581451929  0.1675038345430282  0.5837160005156071   T   T   T
  0.8352284520473826  0.6653070271650631  0.5837017525488105   T   T   T
 -0.0005164359049656 -0.0017072844609609  0.5284320597551545   T   T   T
  0.0001063143228128  0.4988509629227817  0.5282479243394295   T   T   T
  0.5008249448043569 -0.0018931778927930  0.5284798678671055   T   T   T
  0.5010665476064328  0.5001257421795386  0.5283976746546860   T   T   T
  0.3326123180255591  0.1650457874286155  0.4154861206311683   T   T   T
  0.3320432675088687  0.6646021037048440  0.4157135160226957   T   T   T
  0.8329437756525874  0.1655952581011436  0.4156727367481325   T   T   T
  0.8328316235159356  0.6646311150008095  0.4156975798781748   T   T   T
  0.1705360811596520  0.3302791056770128  0.6408277320695573   T   T   T
  0.1704339211542624  0.8375304485577353  0.6403117283658732   T   T   T
  0.6657911800082307  0.3316689744115174  0.6403982421276384   T   T   T
  0.6675589513032094  0.8325181113302524  0.6402380341152523   T   T   T
  0.0858865656257913  0.5154883678762017  0.7145338217999168   T   T   T
  0.1653630804086437  0.5282613287104005  0.7495648812367115   T   T   T
 
  0.00000000E+00  0.00000000E+00  0.00000000E+00
  0.00000000E+00  0.00000000E+00  0.00000000E+00
  0.00000000E+00  0.00000000E+00  0.00000000E+00
  0.00000000E+00  0.00000000E+00  0.00000000E+00
  0.00000000E+00  0.00000000E+00  0.00000000E+00
  0.00000000E+00  0.00000000E+00  0.00000000E+00
  0.00000000E+00  0.00000000E+00  0.00000000E+00
  0.00000000E+00  0.00000000E+00  0.00000000E+00
  0.00000000E+00  0.00000000E+00  0.00000000E+00
  0.00000000E+00  0.00000000E+00  0.00000000E+00
  0.00000000E+00  0.00000000E+00  0.00000000E+00
  0.00000000E+00  0.00000000E+00  0.00000000E+00
  0.00000000E+00  0.00000000E+00  0.00000000E+00
  0.00000000E+00  0.00000000E+00  0.00000000E+00
  0.00000000E+00  0.00000000E+00  0.00000000E+00
  0.00000000E+00  0.00000000E+00  0.00000000E+00
  0.00000000E+00  0.00000000E+00  0.00000000E+00
  0.00000000E+00  0.00000000E+00  0.00000000E+00
  0.00000000E+00  0.00000000E+00  0.00000000E+00
  0.00000000E+00  0.00000000E+00  0.00000000E+00
  0.00000000E+00  0.00000000E+00  0.00000000E+00
  0.00000000E+00  0.00000000E+00  0.00000000E+00
  0.00000000E+00  0.00000000E+00  0.00000000E+00
  0.00000000E+00  0.00000000E+00  0.00000000E+00
  0.00000000E+00  0.00000000E+00  0.00000000E+00
  0.00000000E+00  0.00000000E+00  0.00000000E+00
  0.00000000E+00  0.00000000E+00  0.00000000E+00
  0.00000000E+00  0.00000000E+00  0.00000000E+00
  0.00000000E+00  0.00000000E+00  0.00000000E+00
  0.00000000E+00  0.00000000E+00  0.00000000E+00
  0.00000000E+00  0.00000000E+00  0.00000000E+00
  0.00000000E+00  0.00000000E+00  0.00000000E+00
  0.00000000E+00  0.00000000E+00  0.00000000E+00
  0.00000000E+00  0.00000000E+00  0.00000000E+00
  0.00000000E+00  0.00000000E+00  0.00000000E+00
  0.00000000E+00  0.00000000E+00  0.00000000E+00
  0.00000000E+00  0.00000000E+00  0.00000000E+00
  0.00000000E+00  0.00000000E+00  0.00000000E+00
