Ce12 C1 O25                             
   1.00000000000000     
     7.7074639999999999    0.0000000000000000    0.0000000000000000
    -3.8537319999999999    6.6748599999999998    0.0000000000000000
     0.0000000000000000    0.0000000000000000   28.3190309999999990
   Ce   O    C    O 
    12    24     1     1
Selective dynamics
Direct
  0.1670457691267201  0.3332300968298902  0.3863853072612570   T   T   T
  0.1670114082987070  0.8333760194153514  0.3862314900305098   T   T   T
  0.6670257923842682  0.3333190282898255  0.3861621775973020   T   T   T
  0.6670599636964852  0.8333314175381952  0.3862164246661937   T   T   T
  0.0003065457146026 -0.0005752446236750  0.6112860906806561   T   T   T
  0.0003093233653689  0.5000712321151563  0.6112433184872076   T   T   T
  0.5006139408615408 -0.0002025665323768  0.6114431731136204   T   T   T
  0.5008286399496588  0.5000882863248612  0.6112405510698564   T   T   T
  0.3339769980256846  0.1665643345524798  0.4987791395229729   T   T   T
  0.3337056062474080  0.6667443646593992  0.4987535088867538   T   T   T
  0.8334608751418999  0.1665513775045696  0.4988018426768527   T   T   T
  0.8335047268944782  0.6667112775228295  0.4986711920720843   T   T   T
  0.1669669849173321  0.3331852187697350  0.4700014429459499   T   T   T
  0.1673332471882032  0.8336884901892797  0.4698315397085725   T   T   T
  0.6667195708120298  0.3328712357228513  0.4697863483171607   T   T   T
  0.6669228637874679  0.8335552577724704  0.4697351205319560   T   T   T
  0.0005904827113255  0.0000168445503795  0.3580563301115048   T   T   T
  0.0002935201743152  0.5000046427659911  0.3581518469237397   T   T   T
  0.5003290825818810  0.0001471353950228  0.3579465809417786   T   T   T
  0.5004185878387151  0.4997727626822301  0.3580694330984558   T   T   T
  0.3345485859557180  0.1668552680687062  0.5825620315631449   T   T   T
  0.3337927466119238  0.6664597190996189  0.5826018496492856   T   T   T
  0.8336219987382137  0.1665175432487803  0.5826860849264104   T   T   T
  0.8332569720026272  0.6663953592409295  0.5826353390718214   T   T   T
  0.0001365496606842 -0.0003011221348704  0.5277602220575960   T   T   T
 -0.0000023356311367  0.5000988312781395  0.5276993007180016   T   T   T
  0.5007277422374961 -0.0004193677178545  0.5276576449791169   T   T   T
  0.5007318665450589  0.5003371814509445  0.5276076994632805   T   T   T
  0.3336463756991358  0.1668039051618097  0.4149375081250423   T   T   T
  0.3336928969702766  0.6664674955768481  0.4149178474581385   T   T   T
  0.8338782060989336  0.1666321983725136  0.4149294503979549   T   T   T
  0.8335744972693909  0.6667303694777581  0.4150168187926070   T   T   T
  0.1672994113542867  0.3333767096425472  0.6395638312585392   T   T   T
  0.1665864535432000  0.8333017192932463  0.6393770128439455   T   T   T
  0.6677246229793256  0.3338970435846850  0.6397224918278135   T   T   T
  0.6668440865201940  0.8330106022301751  0.6395210175930505   T   T   T
  0.1063117903434918  0.3900601901735601  0.7483839386416276   T   T   T
  0.1869706033830857  0.5601931425079941  0.7434170519882363   T   T   T
 
  0.00000000E+00  0.00000000E+00  0.00000000E+00
  0.00000000E+00  0.00000000E+00  0.00000000E+00
  0.00000000E+00  0.00000000E+00  0.00000000E+00
  0.00000000E+00  0.00000000E+00  0.00000000E+00
  0.00000000E+00  0.00000000E+00  0.00000000E+00
  0.00000000E+00  0.00000000E+00  0.00000000E+00
  0.00000000E+00  0.00000000E+00  0.00000000E+00
  0.00000000E+00  0.00000000E+00  0.00000000E+00
  0.00000000E+00  0.00000000E+00  0.00000000E+00
  0.00000000E+00  0.00000000E+00  0.00000000E+00
  0.00000000E+00  0.00000000E+00  0.00000000E+00
  0.00000000E+00  0.00000000E+00  0.00000000E+00
  0.00000000E+00  0.00000000E+00  0.00000000E+00
  0.00000000E+00  0.00000000E+00  0.00000000E+00
  0.00000000E+00  0.00000000E+00  0.00000000E+00
  0.00000000E+00  0.00000000E+00  0.00000000E+00
  0.00000000E+00  0.00000000E+00  0.00000000E+00
  0.00000000E+00  0.00000000E+00  0.00000000E+00
  0.00000000E+00  0.00000000E+00  0.00000000E+00
  0.00000000E+00  0.00000000E+00  0.00000000E+00
  0.00000000E+00  0.00000000E+00  0.00000000E+00
  0.00000000E+00  0.00000000E+00  0.00000000E+00
  0.00000000E+00  0.00000000E+00  0.00000000E+00
  0.00000000E+00  0.00000000E+00  0.00000000E+00
  0.00000000E+00  0.00000000E+00  0.00000000E+00
  0.00000000E+00  0.00000000E+00  0.00000000E+00
  0.00000000E+00  0.00000000E+00  0.00000000E+00
  0.00000000E+00  0.00000000E+00  0.00000000E+00
  0.00000000E+00  0.00000000E+00  0.00000000E+00
  0.00000000E+00  0.00000000E+00  0.00000000E+00
  0.00000000E+00  0.00000000E+00  0.00000000E+00
  0.00000000E+00  0.00000000E+00  0.00000000E+00
  0.00000000E+00  0.00000000E+00  0.00000000E+00
  0.00000000E+00  0.00000000E+00  0.00000000E+00
  0.00000000E+00  0.00000000E+00  0.00000000E+00
  0.00000000E+00  0.00000000E+00  0.00000000E+00
  0.00000000E+00  0.00000000E+00  0.00000000E+00
  0.00000000E+00  0.00000000E+00  0.00000000E+00
