Ce12 C1 O25                             
   1.00000000000000     
     7.7074639999999999    0.0000000000000000    0.0000000000000000
    -3.8537319999999999    6.6748599999999998    0.0000000000000000
     0.0000000000000000    0.0000000000000000   28.3190309999999990
   Ce   O    C    O 
    12    24     1     1
Selective dynamics
Direct
  0.1664484975869474  0.3335256616953423  0.3870410898789632   T   T   T
  0.1664761823440461  0.8335496307180199  0.3870158258334019   T   T   T
  0.6664569948939414  0.3335157130248095  0.3870213775106314   T   T   T
  0.6664667314363684  0.8335414642152829  0.3869823410335573   T   T   T
 -0.0003961747830547  0.0003477877407818  0.6119960795328702   T   T   T
 -0.0003136715757281  0.5003591022679594  0.6119247631801868   T   T   T
  0.4996651672033203  0.0004386486594083  0.6119913025021073   T   T   T
  0.4997792488379931  0.5005139294931408  0.6120357792284623   T   T   T
  0.3330670292719276  0.1670438921824181  0.4995283325854991   T   T   T
  0.3330899507177738  0.6669757864773145  0.4995184708596685   T   T   T
  0.8330450112027968  0.1669187859106883  0.4995123211011998   T   T   T
  0.8330919260342676  0.6669599050299653  0.4995162312006200   T   T   T
  0.1663164417778754  0.3337336212281006  0.4706216635940004   T   T   T
  0.1663056252587172  0.8333545315022892  0.4705543584051686   T   T   T
  0.6666579130054627  0.3337215369706069  0.4705782629893443   T   T   T
  0.6663919488993320  0.8336425741367395  0.4706798767415517   T   T   T
 -0.0002245697877571  0.0002054731289369  0.3587393547154550   T   T   T
 -0.0002194365354778  0.5001907540821885  0.3587701870182187   T   T   T
  0.4997790884523979  0.0002196561613474  0.3587159760584916   T   T   T
  0.4997905370051796  0.5002128778238600  0.3587491727098309   T   T   T
  0.3330487265598466  0.1671015051803489  0.5835077443456103   T   T   T
  0.3338999800057795  0.6675677332688754  0.5833045865045373   T   T   T
  0.8325433086214360  0.1660284097202850  0.5832745050557732   T   T   T
  0.8327397630888023  0.6675618525360341  0.5832810925081985   T   T   T
 -0.0000259161044593  0.0003966936864649  0.5283801681307505   T   T   T
 -0.0002786433337807  0.5002944616805767  0.5284293456819215   T   T   T
  0.4995228722351228  0.0004692473338171  0.5283891369955462   T   T   T
  0.4996907034143369  0.5001818136072869  0.5284121996137781   T   T   T
  0.3331157815240294  0.1669212411814977  0.4156562519303130   T   T   T
  0.3331650899525919  0.6668426779435260  0.4156524860125995   T   T   T
  0.8331424192377608  0.1668460729300825  0.4156674101616950   T   T   T
  0.8330742456246607  0.6668896335442751  0.4156466464292556   T   T   T
  0.1656430395047369  0.3342933837869840  0.6401111994361326   T   T   T
  0.1659912608431566  0.8330900119806101  0.6402468013247643   T   T   T
  0.6676119418376069  0.3343234675114527  0.6400902467722712   T   T   T
  0.6663354255595638  0.8336080390473628  0.6405704041480940   T   T   T
  0.3305012417937754  0.2232854693322974  0.7729174928411406   T   T   T
  0.3452703183887093  0.2097709532790254  0.7330855154283880   T   T   T
 
  0.00000000E+00  0.00000000E+00  0.00000000E+00
  0.00000000E+00  0.00000000E+00  0.00000000E+00
  0.00000000E+00  0.00000000E+00  0.00000000E+00
  0.00000000E+00  0.00000000E+00  0.00000000E+00
  0.00000000E+00  0.00000000E+00  0.00000000E+00
  0.00000000E+00  0.00000000E+00  0.00000000E+00
  0.00000000E+00  0.00000000E+00  0.00000000E+00
  0.00000000E+00  0.00000000E+00  0.00000000E+00
  0.00000000E+00  0.00000000E+00  0.00000000E+00
  0.00000000E+00  0.00000000E+00  0.00000000E+00
  0.00000000E+00  0.00000000E+00  0.00000000E+00
  0.00000000E+00  0.00000000E+00  0.00000000E+00
  0.00000000E+00  0.00000000E+00  0.00000000E+00
  0.00000000E+00  0.00000000E+00  0.00000000E+00
  0.00000000E+00  0.00000000E+00  0.00000000E+00
  0.00000000E+00  0.00000000E+00  0.00000000E+00
  0.00000000E+00  0.00000000E+00  0.00000000E+00
  0.00000000E+00  0.00000000E+00  0.00000000E+00
  0.00000000E+00  0.00000000E+00  0.00000000E+00
  0.00000000E+00  0.00000000E+00  0.00000000E+00
  0.00000000E+00  0.00000000E+00  0.00000000E+00
  0.00000000E+00  0.00000000E+00  0.00000000E+00
  0.00000000E+00  0.00000000E+00  0.00000000E+00
  0.00000000E+00  0.00000000E+00  0.00000000E+00
  0.00000000E+00  0.00000000E+00  0.00000000E+00
  0.00000000E+00  0.00000000E+00  0.00000000E+00
  0.00000000E+00  0.00000000E+00  0.00000000E+00
  0.00000000E+00  0.00000000E+00  0.00000000E+00
  0.00000000E+00  0.00000000E+00  0.00000000E+00
  0.00000000E+00  0.00000000E+00  0.00000000E+00
  0.00000000E+00  0.00000000E+00  0.00000000E+00
  0.00000000E+00  0.00000000E+00  0.00000000E+00
  0.00000000E+00  0.00000000E+00  0.00000000E+00
  0.00000000E+00  0.00000000E+00  0.00000000E+00
  0.00000000E+00  0.00000000E+00  0.00000000E+00
  0.00000000E+00  0.00000000E+00  0.00000000E+00
  0.00000000E+00  0.00000000E+00  0.00000000E+00
  0.00000000E+00  0.00000000E+00  0.00000000E+00
