Ce12 C1 O25                             
   1.00000000000000     
     7.7074639999999999    0.0000000000000000    0.0000000000000000
    -3.8537319999999999    6.6748599999999998    0.0000000000000000
     0.0000000000000000    0.0000000000000000   28.3190309999999990
   Ce   O    C    O 
    12    24     1     1
Selective dynamics
Direct
  0.1682459102681802  0.3349201383100476  0.3879000330581373   T   T   T
  0.1682287552879189  0.8348898618440834  0.3878965801544880   T   T   T
  0.6681590157893413  0.3348846046948961  0.3880418780716351   T   T   T
  0.6681762845994251  0.8348753671852872  0.3879131458269258   T   T   T
  0.0007896016978001  0.0006151885549977  0.6143108327956609   T   T   T
  0.0015592803006259  0.5016239434538611  0.6128658295166294   T   T   T
  0.5015093140932027  0.0012306455488938  0.6127827646724251   T   T   T
  0.5019666344846104  0.5018030292260369  0.6128043261367427   T   T   T
  0.3339536819677365  0.1677654701025024  0.5005171490058914   T   T   T
  0.3347647049823850  0.6680301909635762  0.5003895277594879   T   T   T
  0.8355369702160848  0.1679074439504520  0.5005485494077114   T   T   T
  0.8353193876960777  0.6687551375558071  0.5005157648701420   T   T   T
  0.1687023636662245  0.3353422241199426  0.4716335657876977   T   T   T
  0.1687968737378724  0.8348524744016970  0.4715842448319819   T   T   T
  0.6680542293996412  0.3348060004669724  0.4714907411293587   T   T   T
  0.6676269953070310  0.8346067195638915  0.4715327150994640   T   T   T
  0.0012791060605501  0.0013374542703333  0.3595763505265437   T   T   T
  0.0013357459586685  0.5016602948067603  0.3596059924009659   T   T   T
  0.5017269243217715  0.0017890902114048  0.3597435139627241   T   T   T
  0.5018791068284151  0.5018005275904945  0.3596493033445726   T   T   T
  0.3326822084030080  0.1672194926770324  0.5846231809167702   T   T   T
  0.3340573910550042  0.6677690661271788  0.5837880706272544   T   T   T
  0.8366040767072712  0.1678265513762798  0.5847751288738658   T   T   T
  0.8362128479538535  0.6693164281910423  0.5846736647378619   T   T   T
  0.0010762275597958  0.0009468709212210  0.5291277862409206   T   T   T
  0.0008340712084793  0.5009505238684027  0.5293603601191704   T   T   T
  0.5022719272562638  0.0023895289231733  0.5295141063690532   T   T   T
  0.5021148785579873  0.5013476980958264  0.5294756413464964   T   T   T
  0.3341064863750765  0.1680214116570942  0.4165969294115245   T   T   T
  0.3347099258933008  0.6680269147418686  0.4165518664762877   T   T   T
  0.8355359565775219  0.1681577217535656  0.4166540585447331   T   T   T
  0.8353707285713406  0.6690093672848927  0.4166344885656934   T   T   T
  0.1711993796140494  0.3394939409798317  0.6418304913094486   T   T   T
  0.1702341474842655  0.8337312464090996  0.6415933142914483   T   T   T
  0.6680135277494273  0.3346813292011339  0.6413638454035129   T   T   T
  0.6644413858760443  0.8327710692224372  0.6410740939185985   T   T   T
  0.0519424483781553  0.0559979261028030  0.7160285562476836   T   T   T
  0.1132034981155945  0.1110691056451809  0.7531476082404891   T   T   T
 
  0.00000000E+00  0.00000000E+00  0.00000000E+00
  0.00000000E+00  0.00000000E+00  0.00000000E+00
  0.00000000E+00  0.00000000E+00  0.00000000E+00
  0.00000000E+00  0.00000000E+00  0.00000000E+00
  0.00000000E+00  0.00000000E+00  0.00000000E+00
  0.00000000E+00  0.00000000E+00  0.00000000E+00
  0.00000000E+00  0.00000000E+00  0.00000000E+00
  0.00000000E+00  0.00000000E+00  0.00000000E+00
  0.00000000E+00  0.00000000E+00  0.00000000E+00
  0.00000000E+00  0.00000000E+00  0.00000000E+00
  0.00000000E+00  0.00000000E+00  0.00000000E+00
  0.00000000E+00  0.00000000E+00  0.00000000E+00
  0.00000000E+00  0.00000000E+00  0.00000000E+00
  0.00000000E+00  0.00000000E+00  0.00000000E+00
  0.00000000E+00  0.00000000E+00  0.00000000E+00
  0.00000000E+00  0.00000000E+00  0.00000000E+00
  0.00000000E+00  0.00000000E+00  0.00000000E+00
  0.00000000E+00  0.00000000E+00  0.00000000E+00
  0.00000000E+00  0.00000000E+00  0.00000000E+00
  0.00000000E+00  0.00000000E+00  0.00000000E+00
  0.00000000E+00  0.00000000E+00  0.00000000E+00
  0.00000000E+00  0.00000000E+00  0.00000000E+00
  0.00000000E+00  0.00000000E+00  0.00000000E+00
  0.00000000E+00  0.00000000E+00  0.00000000E+00
  0.00000000E+00  0.00000000E+00  0.00000000E+00
  0.00000000E+00  0.00000000E+00  0.00000000E+00
  0.00000000E+00  0.00000000E+00  0.00000000E+00
  0.00000000E+00  0.00000000E+00  0.00000000E+00
  0.00000000E+00  0.00000000E+00  0.00000000E+00
  0.00000000E+00  0.00000000E+00  0.00000000E+00
  0.00000000E+00  0.00000000E+00  0.00000000E+00
  0.00000000E+00  0.00000000E+00  0.00000000E+00
  0.00000000E+00  0.00000000E+00  0.00000000E+00
  0.00000000E+00  0.00000000E+00  0.00000000E+00
  0.00000000E+00  0.00000000E+00  0.00000000E+00
  0.00000000E+00  0.00000000E+00  0.00000000E+00
  0.00000000E+00  0.00000000E+00  0.00000000E+00
  0.00000000E+00  0.00000000E+00  0.00000000E+00
