Ce12 C1 O25                             
   1.00000000000000     
     7.7074639999999999    0.0000000000000000    0.0000000000000000
    -3.8537319999999999    6.6748599999999998    0.0000000000000000
     0.0000000000000000    0.0000000000000000   28.3190309999999990
   Ce   O    C    O 
    12    24     1     1
Selective dynamics
Direct
  0.1665062476518208  0.3333501135308923  0.3862541741698081   T   T   T
  0.1665033586617077  0.8334088733561297  0.3862899778496460   T   T   T
  0.6664387924217421  0.3333509604876319  0.3862464292594034   T   T   T
  0.6664746064373275  0.8333552419761633  0.3862366745704237   T   T   T
 -0.0007375403306676  0.0001321414774640  0.6111854172918760   T   T   T
 -0.0006217920969388  0.4996073110528259  0.6111252644353632   T   T   T
  0.5000592309806352  0.0003161125596388  0.6112338183935641   T   T   T
  0.4995331822104385  0.4998917699577777  0.6113691418485768   T   T   T
  0.3330896058104056  0.1667107767223854  0.4987770744477446   T   T   T
  0.3331689569906685  0.6666733346446883  0.4987794175382080   T   T   T
  0.8330654676040145  0.1667088800711954  0.4986829001928704   T   T   T
  0.8329133182322641  0.6666581241386713  0.4987652548796652   T   T   T
  0.1664836387922747  0.3335453930044944  0.4698306347801535   T   T   T
  0.1663533415945076  0.8332040808868306  0.4699202293912212   T   T   T
  0.6665395916852824  0.3335446970230570  0.4698344991777251   T   T   T
  0.6663007951596067  0.8331329454921965  0.4699141707628958   T   T   T
 -0.0001075773300626  0.0000228725875513  0.3580281298669346   T   T   T
 -0.0001670603416033  0.5000911815079764  0.3580637802880207   T   T   T
  0.4997258069002222  0.0000344470753897  0.3580274697652213   T   T   T
  0.4997913628033726  0.4999715230488380  0.3579365412932883   T   T   T
  0.3326371383559754  0.1659426513616251  0.5827388442251313   T   T   T
  0.3338961249225614  0.6672911796536015  0.5825180593754137   T   T   T
  0.8325448268146562  0.1657675013818298  0.5825148062744414   T   T   T
  0.8325299970790261  0.6673488663684825  0.5824505630988321   T   T   T
 -0.0001332758642419  0.0004510213359547  0.5275833163194347   T   T   T
 -0.0004474707666839  0.4997469369870811  0.5276873670078295   T   T   T
  0.4999647634171769  0.0004279156048619  0.5276230579801811   T   T   T
  0.4993115384321137  0.4993730064579503  0.5277409002010841   T   T   T
  0.3331403275503486  0.1667256198846829  0.4149720482554096   T   T   T
  0.3332912022637219  0.6667707955465197  0.4149400753307519   T   T   T
  0.8330450138233053  0.1665283244797159  0.4149643350166232   T   T   T
  0.8330448590648415  0.6667807695642832  0.4149402207136821   T   T   T
  0.1659923050439556  0.3335752736033931  0.6392744683633478   T   T   T
  0.1648159424433780  0.8310250693759671  0.6393379809718795   T   T   T
  0.6672893502031476  0.3340062681426772  0.6391338923258263   T   T   T
  0.6662257350294843  0.8334731934625196  0.6397709452949851   T   T   T
  0.2752727201697140 -0.0135069638709138  0.7354053561786372   T   T   T
  0.2062765681804993  0.8434717900579686  0.7576927628638985   T   T   T
 
  0.00000000E+00  0.00000000E+00  0.00000000E+00
  0.00000000E+00  0.00000000E+00  0.00000000E+00
  0.00000000E+00  0.00000000E+00  0.00000000E+00
  0.00000000E+00  0.00000000E+00  0.00000000E+00
  0.00000000E+00  0.00000000E+00  0.00000000E+00
  0.00000000E+00  0.00000000E+00  0.00000000E+00
  0.00000000E+00  0.00000000E+00  0.00000000E+00
  0.00000000E+00  0.00000000E+00  0.00000000E+00
  0.00000000E+00  0.00000000E+00  0.00000000E+00
  0.00000000E+00  0.00000000E+00  0.00000000E+00
  0.00000000E+00  0.00000000E+00  0.00000000E+00
  0.00000000E+00  0.00000000E+00  0.00000000E+00
  0.00000000E+00  0.00000000E+00  0.00000000E+00
  0.00000000E+00  0.00000000E+00  0.00000000E+00
  0.00000000E+00  0.00000000E+00  0.00000000E+00
  0.00000000E+00  0.00000000E+00  0.00000000E+00
  0.00000000E+00  0.00000000E+00  0.00000000E+00
  0.00000000E+00  0.00000000E+00  0.00000000E+00
  0.00000000E+00  0.00000000E+00  0.00000000E+00
  0.00000000E+00  0.00000000E+00  0.00000000E+00
  0.00000000E+00  0.00000000E+00  0.00000000E+00
  0.00000000E+00  0.00000000E+00  0.00000000E+00
  0.00000000E+00  0.00000000E+00  0.00000000E+00
  0.00000000E+00  0.00000000E+00  0.00000000E+00
  0.00000000E+00  0.00000000E+00  0.00000000E+00
  0.00000000E+00  0.00000000E+00  0.00000000E+00
  0.00000000E+00  0.00000000E+00  0.00000000E+00
  0.00000000E+00  0.00000000E+00  0.00000000E+00
  0.00000000E+00  0.00000000E+00  0.00000000E+00
  0.00000000E+00  0.00000000E+00  0.00000000E+00
  0.00000000E+00  0.00000000E+00  0.00000000E+00
  0.00000000E+00  0.00000000E+00  0.00000000E+00
  0.00000000E+00  0.00000000E+00  0.00000000E+00
  0.00000000E+00  0.00000000E+00  0.00000000E+00
  0.00000000E+00  0.00000000E+00  0.00000000E+00
  0.00000000E+00  0.00000000E+00  0.00000000E+00
  0.00000000E+00  0.00000000E+00  0.00000000E+00
  0.00000000E+00  0.00000000E+00  0.00000000E+00
