Ce12 C1 O25                             
   1.00000000000000     
     7.7074639999999999    0.0000000000000000    0.0000000000000000
    -3.8537319999999999    6.6748599999999998    0.0000000000000000
     0.0000000000000000    0.0000000000000000   28.3190309999999990
   Ce   O    C    O 
    12    24     1     1
Selective dynamics
Direct
  0.1667274896335051  0.3331197999799737  0.3871574179680282   T   T   T
  0.1667942998143136  0.8331792764389361  0.3872028195621119   T   T   T
  0.6667288639801177  0.3330856746704696  0.3871977950554078   T   T   T
  0.6667491567283701  0.8331602444896458  0.3872998887881763   T   T   T
  0.0004188819321086 -0.0008759685669975  0.6122565392635071   T   T   T
  0.0001634190048056  0.4990981907943963  0.6128372892472136   T   T   T
  0.4999510657301064 -0.0008705689428014  0.6122393884344284   T   T   T
  0.4999933724333110  0.4987352849182147  0.6122564989847578   T   T   T
  0.3334605745137149  0.1661266486481933  0.4997672941667471   T   T   T
  0.3332004111633143  0.6658936992959581  0.4998076811355509   T   T   T
  0.8337052764594610  0.1664325001136839  0.4998211743835389   T   T   T
  0.8336638076367013  0.6659195502194392  0.4998053002036908   T   T   T
  0.1671341212436415  0.3326851275898381  0.4707660266296672   T   T   T
  0.1669196323057988  0.8331880543083187  0.4709186544955897   T   T   T
  0.6664515883249040  0.3328033601132178  0.4708695660828886   T   T   T
  0.6668282983970001  0.8326525130451182  0.4708147977013933   T   T   T
 -0.0003287049706388 -0.0001618484247218  0.3589100498012848   T   T   T
  0.0000751239897653  0.4997026846103897  0.3588681733902983   T   T   T
  0.5003609913139404 -0.0002747101120602  0.3589076973219414   T   T   T
  0.5001492969674666  0.5002192431621526  0.3589285490541395   T   T   T
  0.3332526806954702  0.1656444552147067  0.5833005723864197   T   T   T
  0.3322096342136736  0.6652060790688558  0.5838507315354221   T   T   T
  0.8341897182640012  0.1671238315931709  0.5838823512457346   T   T   T
  0.8342569164768933  0.6652732412874679  0.5838415572559273   T   T   T
 -0.0002320910227693 -0.0007318355952500  0.5287206310712632   T   T   T
  0.0002397758529341  0.4991677311778056  0.5287650232922894   T   T   T
  0.5003471272010702 -0.0007265193904794  0.5287473520777017   T   T   T
  0.5002933772361243  0.4996751243585602  0.5287427272925506   T   T   T
  0.3334490725206208  0.1662761465744188  0.4158088720189880   T   T   T
  0.3330939862900031  0.6664108113627909  0.4158976674891731   T   T   T
  0.8334698201157769  0.1666760589951921  0.4159361323078242   T   T   T
  0.8337257534203957  0.6662674139482704  0.4158626053937211   T   T   T
  0.1681898206082713  0.3313698790870441  0.6405327128372587   T   T   T
  0.1674767055605605  0.8335162512344576  0.6407419431281028   T   T   T
  0.6649380966436431  0.3314937726872627  0.6405681587258129   T   T   T
  0.6668828634704312  0.8326006069157892  0.6407831285165323   T   T   T
  0.0004147244846142  0.4387321604479141  0.7673554722079398   T   T   T
 -0.0053449486334223  0.4710940346806534  0.7281457595469754   T   T   T
 
  0.00000000E+00  0.00000000E+00  0.00000000E+00
  0.00000000E+00  0.00000000E+00  0.00000000E+00
  0.00000000E+00  0.00000000E+00  0.00000000E+00
  0.00000000E+00  0.00000000E+00  0.00000000E+00
  0.00000000E+00  0.00000000E+00  0.00000000E+00
  0.00000000E+00  0.00000000E+00  0.00000000E+00
  0.00000000E+00  0.00000000E+00  0.00000000E+00
  0.00000000E+00  0.00000000E+00  0.00000000E+00
  0.00000000E+00  0.00000000E+00  0.00000000E+00
  0.00000000E+00  0.00000000E+00  0.00000000E+00
  0.00000000E+00  0.00000000E+00  0.00000000E+00
  0.00000000E+00  0.00000000E+00  0.00000000E+00
  0.00000000E+00  0.00000000E+00  0.00000000E+00
  0.00000000E+00  0.00000000E+00  0.00000000E+00
  0.00000000E+00  0.00000000E+00  0.00000000E+00
  0.00000000E+00  0.00000000E+00  0.00000000E+00
  0.00000000E+00  0.00000000E+00  0.00000000E+00
  0.00000000E+00  0.00000000E+00  0.00000000E+00
  0.00000000E+00  0.00000000E+00  0.00000000E+00
  0.00000000E+00  0.00000000E+00  0.00000000E+00
  0.00000000E+00  0.00000000E+00  0.00000000E+00
  0.00000000E+00  0.00000000E+00  0.00000000E+00
  0.00000000E+00  0.00000000E+00  0.00000000E+00
  0.00000000E+00  0.00000000E+00  0.00000000E+00
  0.00000000E+00  0.00000000E+00  0.00000000E+00
  0.00000000E+00  0.00000000E+00  0.00000000E+00
  0.00000000E+00  0.00000000E+00  0.00000000E+00
  0.00000000E+00  0.00000000E+00  0.00000000E+00
  0.00000000E+00  0.00000000E+00  0.00000000E+00
  0.00000000E+00  0.00000000E+00  0.00000000E+00
  0.00000000E+00  0.00000000E+00  0.00000000E+00
  0.00000000E+00  0.00000000E+00  0.00000000E+00
  0.00000000E+00  0.00000000E+00  0.00000000E+00
  0.00000000E+00  0.00000000E+00  0.00000000E+00
  0.00000000E+00  0.00000000E+00  0.00000000E+00
  0.00000000E+00  0.00000000E+00  0.00000000E+00
  0.00000000E+00  0.00000000E+00  0.00000000E+00
  0.00000000E+00  0.00000000E+00  0.00000000E+00
