Ce12 C1 O25                             
   1.00000000000000     
     7.7074639999999999    0.0000000000000000    0.0000000000000000
    -3.8537319999999999    6.6748599999999998    0.0000000000000000
     0.0000000000000000    0.0000000000000000   28.3190309999999990
   Ce   O    C    O 
    12    24     1     1
Selective dynamics
Direct
  0.1667683194527917  0.3349123943436679  0.3868409408755759   T   T   T
  0.1666844984942658  0.8348364996290841  0.3870248696140804   T   T   T
  0.6667290590856650  0.3348898393638684  0.3868673007127371   T   T   T
  0.6666369042373792  0.8347848519865856  0.3869213125727727   T   T   T
 -0.0002019765966611  0.0019193541431685  0.6118625863207627   T   T   T
 -0.0003212333559826  0.5016435106096437  0.6118581142676397   T   T   T
  0.5000417262590789  0.0018472417400565  0.6117860249929340   T   T   T
  0.5000823431431419  0.5012595261531382  0.6132563869890474   T   T   T
  0.3336598547641385  0.1689066123466484  0.4995064386920451   T   T   T
  0.3334369236986789  0.6680809193252298  0.4995677534700403   T   T   T
  0.8334570258362063  0.1684453761145238  0.4993575525912773   T   T   T
  0.8326896533599402  0.6681116854383156  0.4995502890552797   T   T   T
  0.1659035957689155  0.3349574031964924  0.4706345973023925   T   T   T
  0.1668781902738478  0.8347866978757673  0.4704739182254823   T   T   T
  0.6669393408777764  0.3345210081871006  0.4705245003533706   T   T   T
  0.6666697982760197  0.8356512313097667  0.4706228841814415   T   T   T
  0.0003688639989117  0.0013186086905835  0.3585898096123492   T   T   T
  0.0000767698835122  0.5018269528317212  0.3585676733688838   T   T   T
  0.4998358865882065  0.0014477152432954  0.3586682209830891   T   T   T
  0.5001818920429278  0.5015914342337521  0.3584963827922787   T   T   T
  0.3330129379026650  0.1697178822755188  0.5838025333211331   T   T   T
  0.3339181539564554  0.6669421638505542  0.5836398584465119   T   T   T
  0.8342149818530683  0.1682459106367703  0.5827676847285034   T   T   T
  0.8314686279583682  0.6684786998533812  0.5838536866957587   T   T   T
  0.0005105467077434  0.0009628610946441  0.5283942618106543   T   T   T
 -0.0000710822058074  0.5028287016207805  0.5286141727802610   T   T   T
  0.4991305259622842  0.0015270566540965  0.5286445044377455   T   T   T
  0.5001247064998569  0.5013156945441527  0.5282337670215987   T   T   T
  0.3336424926783669  0.1688013111663010  0.4157598118327767   T   T   T
  0.3335849963225989  0.6680031671602670  0.4156023827698936   T   T   T
  0.8335050644320049  0.1682201488569280  0.4154279220835732   T   T   T
  0.8328979419627537  0.6680946511146886  0.4157227706286598   T   T   T
  0.1626908681746072  0.3335520755073475  0.6409053200910279   T   T   T
  0.1668994870628777  0.8348596624379362  0.6403245781402594   T   T   T
  0.6680588376400063  0.3332016742799915  0.6401345535499793   T   T   T
  0.6676461519426776  0.8396593182668036  0.6407143065287263   T   T   T
  0.4571154102193260  0.5370583372759512  0.7146560942736033   T   T   T
  0.4084549148413909  0.5738818206414786  0.7496142338858512   T   T   T
 
  0.00000000E+00  0.00000000E+00  0.00000000E+00
  0.00000000E+00  0.00000000E+00  0.00000000E+00
  0.00000000E+00  0.00000000E+00  0.00000000E+00
  0.00000000E+00  0.00000000E+00  0.00000000E+00
  0.00000000E+00  0.00000000E+00  0.00000000E+00
  0.00000000E+00  0.00000000E+00  0.00000000E+00
  0.00000000E+00  0.00000000E+00  0.00000000E+00
  0.00000000E+00  0.00000000E+00  0.00000000E+00
  0.00000000E+00  0.00000000E+00  0.00000000E+00
  0.00000000E+00  0.00000000E+00  0.00000000E+00
  0.00000000E+00  0.00000000E+00  0.00000000E+00
  0.00000000E+00  0.00000000E+00  0.00000000E+00
  0.00000000E+00  0.00000000E+00  0.00000000E+00
  0.00000000E+00  0.00000000E+00  0.00000000E+00
  0.00000000E+00  0.00000000E+00  0.00000000E+00
  0.00000000E+00  0.00000000E+00  0.00000000E+00
  0.00000000E+00  0.00000000E+00  0.00000000E+00
  0.00000000E+00  0.00000000E+00  0.00000000E+00
  0.00000000E+00  0.00000000E+00  0.00000000E+00
  0.00000000E+00  0.00000000E+00  0.00000000E+00
  0.00000000E+00  0.00000000E+00  0.00000000E+00
  0.00000000E+00  0.00000000E+00  0.00000000E+00
  0.00000000E+00  0.00000000E+00  0.00000000E+00
  0.00000000E+00  0.00000000E+00  0.00000000E+00
  0.00000000E+00  0.00000000E+00  0.00000000E+00
  0.00000000E+00  0.00000000E+00  0.00000000E+00
  0.00000000E+00  0.00000000E+00  0.00000000E+00
  0.00000000E+00  0.00000000E+00  0.00000000E+00
  0.00000000E+00  0.00000000E+00  0.00000000E+00
  0.00000000E+00  0.00000000E+00  0.00000000E+00
  0.00000000E+00  0.00000000E+00  0.00000000E+00
  0.00000000E+00  0.00000000E+00  0.00000000E+00
  0.00000000E+00  0.00000000E+00  0.00000000E+00
  0.00000000E+00  0.00000000E+00  0.00000000E+00
  0.00000000E+00  0.00000000E+00  0.00000000E+00
  0.00000000E+00  0.00000000E+00  0.00000000E+00
  0.00000000E+00  0.00000000E+00  0.00000000E+00
  0.00000000E+00  0.00000000E+00  0.00000000E+00
