Ce12 C1 O25                             
   1.00000000000000     
     7.7074639999999999    0.0000000000000000    0.0000000000000000
    -3.8537319999999999    6.6748599999999998    0.0000000000000000
     0.0000000000000000    0.0000000000000000   28.3190309999999990
   Ce   O    C    O 
    12    24     1     1
Selective dynamics
Direct
  0.1668840715091497  0.3346002742457418  0.3863983604642677   T   T   T
  0.1670362813085519  0.8348464488702839  0.3863976147542804   T   T   T
  0.6668151281550962  0.3345247899421633  0.3863522176369950   T   T   T
  0.6669063863424067  0.8348212055036031  0.3864215022299379   T   T   T
 -0.0001277452010726  0.0027568177627064  0.6111934660787871   T   T   T
 -0.0001866736815028  0.5026932003507197  0.6113828898662219   T   T   T
  0.5002000593702284  0.0027585852035067  0.6116880696162128   T   T   T
  0.4999000477861442  0.5027385035209860  0.6112916945385634   T   T   T
  0.3337289867707771  0.1688228946199245  0.4989564101767271   T   T   T
  0.3335584909094289  0.6689400285446508  0.4989710043481187   T   T   T
  0.8335024093005484  0.1688247054477594  0.4989741722815466   T   T   T
  0.8334467654069178  0.6687424445619555  0.4988879264214668   T   T   T
  0.1669668467379076  0.3352779399394596  0.4700034984556579   T   T   T
  0.1667819580157819  0.8353823670353987  0.4701702779168352   T   T   T
  0.6668314689574201  0.3354761482037344  0.4701358929565757   T   T   T
  0.6670338222891767  0.8351988432274585  0.4701078311962257   T   T   T
  0.0005379153151175  0.0016440117931104  0.3581398066036550   T   T   T
  0.0001520146820101  0.5008882558015759  0.3582036560657439   T   T   T
  0.5003412261199278  0.0015085061550068  0.3580570208030001   T   T   T
  0.4999072038023306  0.5007869494693103  0.3581618729913380   T   T   T
  0.3342330264505086  0.1693664792833847  0.5826466053734305   T   T   T
  0.3330774253361768  0.6698860777302991  0.5828909581292423   T   T   T
  0.8330951363405428  0.1699815393009707  0.5827728774852182   T   T   T
  0.8331791167562306  0.6686026843764949  0.5825333952729208   T   T   T
  0.0002134209426920  0.0025266677646055  0.5277678690749421   T   T   T
  0.0004155962694188  0.5022525610204366  0.5276704710405773   T   T   T
  0.5004703755496824  0.0021361665791267  0.5277526779774943   T   T   T
  0.4997553367209271  0.5025190578150890  0.5277212022680345   T   T   T
  0.3336285391933668  0.1677516118005364  0.4150652005553246   T   T   T
  0.3338585501322065  0.6687087672152021  0.4150230318208833   T   T   T
  0.8331227530464638  0.1677266249330072  0.4151161501566397   T   T   T
  0.8336796561567006  0.6683687203020428  0.4149592133805802   T   T   T
  0.1669123526919651  0.3358035091204025  0.6393820600786608   T   T   T
  0.1652384256277887  0.8364467893346370  0.6396249741209513   T   T   T
  0.6664192872063939  0.3364755068679223  0.6398543201168569   T   T   T
  0.6672711549329164  0.8362371454628894  0.6393172283152003   T   T   T
  0.3493676289954972  0.0824552703068977  0.7391400263987608   T   T   T
  0.2754555537541769  0.1748559005869934  0.7486565530321235   T   T   T
 
  0.00000000E+00  0.00000000E+00  0.00000000E+00
  0.00000000E+00  0.00000000E+00  0.00000000E+00
  0.00000000E+00  0.00000000E+00  0.00000000E+00
  0.00000000E+00  0.00000000E+00  0.00000000E+00
  0.00000000E+00  0.00000000E+00  0.00000000E+00
  0.00000000E+00  0.00000000E+00  0.00000000E+00
  0.00000000E+00  0.00000000E+00  0.00000000E+00
  0.00000000E+00  0.00000000E+00  0.00000000E+00
  0.00000000E+00  0.00000000E+00  0.00000000E+00
  0.00000000E+00  0.00000000E+00  0.00000000E+00
  0.00000000E+00  0.00000000E+00  0.00000000E+00
  0.00000000E+00  0.00000000E+00  0.00000000E+00
  0.00000000E+00  0.00000000E+00  0.00000000E+00
  0.00000000E+00  0.00000000E+00  0.00000000E+00
  0.00000000E+00  0.00000000E+00  0.00000000E+00
  0.00000000E+00  0.00000000E+00  0.00000000E+00
  0.00000000E+00  0.00000000E+00  0.00000000E+00
  0.00000000E+00  0.00000000E+00  0.00000000E+00
  0.00000000E+00  0.00000000E+00  0.00000000E+00
  0.00000000E+00  0.00000000E+00  0.00000000E+00
  0.00000000E+00  0.00000000E+00  0.00000000E+00
  0.00000000E+00  0.00000000E+00  0.00000000E+00
  0.00000000E+00  0.00000000E+00  0.00000000E+00
  0.00000000E+00  0.00000000E+00  0.00000000E+00
  0.00000000E+00  0.00000000E+00  0.00000000E+00
  0.00000000E+00  0.00000000E+00  0.00000000E+00
  0.00000000E+00  0.00000000E+00  0.00000000E+00
  0.00000000E+00  0.00000000E+00  0.00000000E+00
  0.00000000E+00  0.00000000E+00  0.00000000E+00
  0.00000000E+00  0.00000000E+00  0.00000000E+00
  0.00000000E+00  0.00000000E+00  0.00000000E+00
  0.00000000E+00  0.00000000E+00  0.00000000E+00
  0.00000000E+00  0.00000000E+00  0.00000000E+00
  0.00000000E+00  0.00000000E+00  0.00000000E+00
  0.00000000E+00  0.00000000E+00  0.00000000E+00
  0.00000000E+00  0.00000000E+00  0.00000000E+00
  0.00000000E+00  0.00000000E+00  0.00000000E+00
  0.00000000E+00  0.00000000E+00  0.00000000E+00
