Ce12 C1 O25                             
   1.00000000000000     
     7.7074639999999999    0.0000000000000000    0.0000000000000000
    -3.8537319999999999    6.6748599999999998    0.0000000000000000
     0.0000000000000000    0.0000000000000000   28.3190309999999990
   Ce   O    C    O 
    12    24     1     1
Selective dynamics
Direct
  0.1671965997398845  0.3343582866740057  0.3862806597350859   T   T   T
  0.1670847811780082  0.8340399615788755  0.3863063207491313   T   T   T
  0.6670641544074160  0.3342418721731946  0.3864329020171572   T   T   T
  0.6669244914188985  0.8339981160296537  0.3862923192801745   T   T   T
  0.0007387456049880  0.0010807498023099  0.6113342867614936   T   T   T
  0.0012777325893378  0.5011381391264723  0.6112847610899644   T   T   T
  0.5000692403245938 -0.0005038679843494  0.6111661977675249   T   T   T
  0.5007436106269794  0.5006950286591543  0.6114374018337444   T   T   T
  0.3338437783510271  0.1672827302013726  0.4988184896301693   T   T   T
  0.3339330006446564  0.6670860815132330  0.4987136070758388   T   T   T
  0.8338170028325640  0.1673850605666755  0.4987966101174069   T   T   T
  0.8340808072669499  0.6675792487804245  0.4988464676802354   T   T   T
  0.1673715037355538  0.3342757163181630  0.4697107280140870   T   T   T
  0.1671066427032566  0.8339484252045868  0.4697961041523783   T   T   T
  0.6672333397254347  0.3339345102064528  0.4700277238497238   T   T   T
  0.6671547844070594  0.8339124641459797  0.4697708807352308   T   T   T
  0.0003826507240293  0.0006819186872081  0.3581393000832762   T   T   T
  0.0008868242861397  0.5014478063398293  0.3580593022651165   T   T   T
  0.4998988162155431  0.0002453896692082  0.3581621207439642   T   T   T
  0.5003659326128120  0.5012175583050688  0.3580086495824507   T   T   T
  0.3326638157332050  0.1659521321899925  0.5827207033179657   T   T   T
  0.3340754882620696  0.6672759412207526  0.5824133627993895   T   T   T
  0.8337983374912804  0.1667172863677363  0.5827570223935021   T   T   T
  0.8355700566877347  0.6694377960147204  0.5826758359306399   T   T   T
  0.0006595556937518  0.0015064704306274  0.5274820218111350   T   T   T
  0.0005117136397082  0.5005157255293882  0.5276914779325731   T   T   T
  0.5004489927857667  0.0003983930385046  0.5276434930754084   T   T   T
  0.5009637750314100  0.5003092262285803  0.5277786285015087   T   T   T
  0.3343815822426299  0.1679703765914846  0.4149968887738901   T   T   T
  0.3338023448144750  0.6673157549983533  0.4149731661449381   T   T   T
  0.8336073661539053  0.1678448160664408  0.4149317668913736   T   T   T
  0.8333085565410764  0.6667253026961967  0.4150304204631154   T   T   T
  0.1675284002570397  0.3348721608977743  0.6394036179612157   T   T   T
  0.1684068716789360  0.8333223673963462  0.6398975314026590   T   T   T
  0.6674849575142303  0.3349610711473471  0.6394251271234747   T   T   T
  0.6663220642738720  0.8333235731996778  0.6396148908851109   T   T   T
  0.5113602641525555  0.1848478197167369  0.7422808695359069   T   T   T
  0.6160994176512194  0.1219925902718160  0.7486883418920356   T   T   T
 
  0.00000000E+00  0.00000000E+00  0.00000000E+00
  0.00000000E+00  0.00000000E+00  0.00000000E+00
  0.00000000E+00  0.00000000E+00  0.00000000E+00
  0.00000000E+00  0.00000000E+00  0.00000000E+00
  0.00000000E+00  0.00000000E+00  0.00000000E+00
  0.00000000E+00  0.00000000E+00  0.00000000E+00
  0.00000000E+00  0.00000000E+00  0.00000000E+00
  0.00000000E+00  0.00000000E+00  0.00000000E+00
  0.00000000E+00  0.00000000E+00  0.00000000E+00
  0.00000000E+00  0.00000000E+00  0.00000000E+00
  0.00000000E+00  0.00000000E+00  0.00000000E+00
  0.00000000E+00  0.00000000E+00  0.00000000E+00
  0.00000000E+00  0.00000000E+00  0.00000000E+00
  0.00000000E+00  0.00000000E+00  0.00000000E+00
  0.00000000E+00  0.00000000E+00  0.00000000E+00
  0.00000000E+00  0.00000000E+00  0.00000000E+00
  0.00000000E+00  0.00000000E+00  0.00000000E+00
  0.00000000E+00  0.00000000E+00  0.00000000E+00
  0.00000000E+00  0.00000000E+00  0.00000000E+00
  0.00000000E+00  0.00000000E+00  0.00000000E+00
  0.00000000E+00  0.00000000E+00  0.00000000E+00
  0.00000000E+00  0.00000000E+00  0.00000000E+00
  0.00000000E+00  0.00000000E+00  0.00000000E+00
  0.00000000E+00  0.00000000E+00  0.00000000E+00
  0.00000000E+00  0.00000000E+00  0.00000000E+00
  0.00000000E+00  0.00000000E+00  0.00000000E+00
  0.00000000E+00  0.00000000E+00  0.00000000E+00
  0.00000000E+00  0.00000000E+00  0.00000000E+00
  0.00000000E+00  0.00000000E+00  0.00000000E+00
  0.00000000E+00  0.00000000E+00  0.00000000E+00
  0.00000000E+00  0.00000000E+00  0.00000000E+00
  0.00000000E+00  0.00000000E+00  0.00000000E+00
  0.00000000E+00  0.00000000E+00  0.00000000E+00
  0.00000000E+00  0.00000000E+00  0.00000000E+00
  0.00000000E+00  0.00000000E+00  0.00000000E+00
  0.00000000E+00  0.00000000E+00  0.00000000E+00
  0.00000000E+00  0.00000000E+00  0.00000000E+00
  0.00000000E+00  0.00000000E+00  0.00000000E+00
