Ce12 C1 O25                             
   1.00000000000000     
     7.7074639999999999    0.0000000000000000    0.0000000000000000
    -3.8537319999999999    6.6748599999999998    0.0000000000000000
     0.0000000000000000    0.0000000000000000   28.3190309999999990
   Ce   O    C    O 
    12    24     1     1
Selective dynamics
Direct
  0.1669265718812438  0.3338213810669785  0.3862173737141260   T   T   T
  0.1669427869158203  0.8340332354468900  0.3862923441306673   T   T   T
  0.6668990066956832  0.3338515197524843  0.3861349008331284   T   T   T
  0.6670106682621799  0.8340247768457991  0.3862145467714418   T   T   T
  0.0009695485974298  0.0006290121173230  0.6111431865047232   T   T   T
  0.0012577868872473  0.5004173467100096  0.6111865424689868   T   T   T
  0.5011767514271298 -0.0000747426585084  0.6111160416900921   T   T   T
  0.5004985212875717  0.5004947351068653  0.6116474386723099   T   T   T
  0.3341450926862016  0.1676100982040331  0.4987887500551198   T   T   T
  0.3338640880581037  0.6671775939979440  0.4987374093254922   T   T   T
  0.8339389048820401  0.1672814297377120  0.4986853087541511   T   T   T
  0.8335698894659134  0.6671298826474539  0.4987752411893356   T   T   T
  0.1673088706395469  0.3346948547652506  0.4699017232604887   T   T   T
  0.1670882499320496  0.8332200219195809  0.4699674310390872   T   T   T
  0.6673558147385822  0.3342612503997177  0.4697601797457474   T   T   T
  0.6666145418403387  0.8334731757839896  0.4700359046918830   T   T   T
  0.0003784366023635  0.0007835982542981  0.3577722077071993   T   T   T
 -0.0002652746074036  0.5001984052139630  0.3580080045538541   T   T   T
  0.5007247687901583  0.0013443376823704  0.3579447516785623   T   T   T
  0.5004125321572255  0.5001916889261740  0.3579034710099676   T   T   T
  0.3339641163350465  0.1672046732857494  0.5829269752087687   T   T   T
  0.3345889551909920  0.6674734461704735  0.5823418021079273   T   T   T
  0.8343159804286400  0.1658508651706148  0.5825166065140158   T   T   T
  0.8341471930821783  0.6681578189090570  0.5827907308076231   T   T   T
  0.0015178429120667  0.0008330714072607  0.5274804684596980   T   T   T
 -0.0001511346038353  0.5003461281365814  0.5276876139523530   T   T   T
  0.5007903847398339  0.0014152544598333  0.5275839011967183   T   T   T
  0.5006961574101536  0.5000318509095791  0.5276815700280361   T   T   T
  0.3329276887150748  0.1667688017465166  0.4149531826617603   T   T   T
  0.3338710038035611  0.6675352530386836  0.4146745048948433   T   T   T
  0.8337910847691374  0.1666239720002810  0.4148899861195894   T   T   T
  0.8338957423338399  0.6680860911343206  0.4148507335284891   T   T   T
  0.1666384833317364  0.3346755783850269  0.6392002199318232   T   T   T
  0.1682167170556203  0.8335929684076675  0.6396546739681668   T   T   T
  0.6687002210662658  0.3331075132424536  0.6394791278235211   T   T   T
  0.6665129926236552  0.8331770222175107  0.6397081326076670   T   T   T
  0.4794278593949260  0.2601637513918366  0.7376511387412451   T   T   T
  0.5363881542716800  0.1648363380662302  0.7554858736513891   T   T   T
 
  0.00000000E+00  0.00000000E+00  0.00000000E+00
  0.00000000E+00  0.00000000E+00  0.00000000E+00
  0.00000000E+00  0.00000000E+00  0.00000000E+00
  0.00000000E+00  0.00000000E+00  0.00000000E+00
  0.00000000E+00  0.00000000E+00  0.00000000E+00
  0.00000000E+00  0.00000000E+00  0.00000000E+00
  0.00000000E+00  0.00000000E+00  0.00000000E+00
  0.00000000E+00  0.00000000E+00  0.00000000E+00
  0.00000000E+00  0.00000000E+00  0.00000000E+00
  0.00000000E+00  0.00000000E+00  0.00000000E+00
  0.00000000E+00  0.00000000E+00  0.00000000E+00
  0.00000000E+00  0.00000000E+00  0.00000000E+00
  0.00000000E+00  0.00000000E+00  0.00000000E+00
  0.00000000E+00  0.00000000E+00  0.00000000E+00
  0.00000000E+00  0.00000000E+00  0.00000000E+00
  0.00000000E+00  0.00000000E+00  0.00000000E+00
  0.00000000E+00  0.00000000E+00  0.00000000E+00
  0.00000000E+00  0.00000000E+00  0.00000000E+00
  0.00000000E+00  0.00000000E+00  0.00000000E+00
  0.00000000E+00  0.00000000E+00  0.00000000E+00
  0.00000000E+00  0.00000000E+00  0.00000000E+00
  0.00000000E+00  0.00000000E+00  0.00000000E+00
  0.00000000E+00  0.00000000E+00  0.00000000E+00
  0.00000000E+00  0.00000000E+00  0.00000000E+00
  0.00000000E+00  0.00000000E+00  0.00000000E+00
  0.00000000E+00  0.00000000E+00  0.00000000E+00
  0.00000000E+00  0.00000000E+00  0.00000000E+00
  0.00000000E+00  0.00000000E+00  0.00000000E+00
  0.00000000E+00  0.00000000E+00  0.00000000E+00
  0.00000000E+00  0.00000000E+00  0.00000000E+00
  0.00000000E+00  0.00000000E+00  0.00000000E+00
  0.00000000E+00  0.00000000E+00  0.00000000E+00
  0.00000000E+00  0.00000000E+00  0.00000000E+00
  0.00000000E+00  0.00000000E+00  0.00000000E+00
  0.00000000E+00  0.00000000E+00  0.00000000E+00
  0.00000000E+00  0.00000000E+00  0.00000000E+00
  0.00000000E+00  0.00000000E+00  0.00000000E+00
  0.00000000E+00  0.00000000E+00  0.00000000E+00
