Ce12 C1 O25                             
   1.00000000000000     
     7.7074639999999999    0.0000000000000000    0.0000000000000000
    -3.8537319999999999    6.6748599999999998    0.0000000000000000
     0.0000000000000000    0.0000000000000000   28.3190309999999990
   Ce   O    C    O 
    12    24     1     1
Selective dynamics
Direct
  0.1674825884923115  0.3338626725178558  0.3863878411151206   T   T   T
  0.1673959128131953  0.8338973810472597  0.3863098328558398   T   T   T
  0.6674611482268090  0.3339043237672949  0.3863092145348283   T   T   T
  0.6675187743770418  0.8338917597537767  0.3863028106464548   T   T   T
  0.0010478906039527  0.0005509436276401  0.6110410798797723   T   T   T
  0.0009467674053156  0.5011347472369360  0.6111258708292790   T   T   T
  0.5011149894062323  0.0009260341006614  0.6114430641873694   T   T   T
  0.5013669252403050  0.5011201504219767  0.6112798374504997   T   T   T
  0.3343280281130778  0.1672181517876062  0.4988518074809405   T   T   T
  0.3343158614943295  0.6676084037317163  0.4988845583183731   T   T   T
  0.8338372360674534  0.1671820925672645  0.4988415163848482   T   T   T
  0.8340170430556741  0.6671516029952735  0.4987156143783525   T   T   T
  0.1673521835476025  0.3339711718774166  0.4699773748425688   T   T   T
  0.1675833954737821  0.8339021233828831  0.4698531228740850   T   T   T
  0.6674404828661811  0.3336502462045258  0.4698416033190110   T   T   T
  0.6673019224301651  0.8341212941078665  0.4698939904588805   T   T   T
  0.0009407809351575  0.0006542801697058  0.3580776922471635   T   T   T
  0.0009058100408498  0.5005729451293349  0.3580785602396719   T   T   T
  0.5006750990922761  0.0004924788077876  0.3579493912463699   T   T   T
  0.5006400107397132  0.5004417421264188  0.3580430392922739   T   T   T
  0.3342984155193297  0.1675744522817614  0.5826555600838501   T   T   T
  0.3349980569956861  0.6679690167755205  0.5825168594358916   T   T   T
  0.8341128682304773  0.1670151714697179  0.5825354858809924   T   T   T
  0.8340664610739382  0.6676544061851848  0.5825589730514644   T   T   T
  0.0009220632610768  0.0004893731853255  0.5276578760361151   T   T   T
  0.0007158820534513  0.5008022755382513  0.5277267891717804   T   T   T
  0.5007850472580408  0.0009578406891937  0.5277784580115674   T   T   T
  0.5011386933613630  0.5006301965075078  0.5276761304828156   T   T   T
  0.3342093621321034  0.1673053660051006  0.4150045681192580   T   T   T
  0.3342680207046101  0.6672632433738047  0.4149790356337196   T   T   T
  0.8340696288338965  0.1671451825001863  0.4149586725250561   T   T   T
  0.8339279408272563  0.6671592742815458  0.4149829489623773   T   T   T
  0.1676605173027628  0.3352597331711448  0.6392323840714998   T   T   T
  0.1670847050888520  0.8335574988019215  0.6393670404730414   T   T   T
  0.6680705218123298  0.3342910302477893  0.6394438991661283   T   T   T
  0.6679194581214499  0.8342002781774486  0.6396217892033274   T   T   T
  0.0962066454099621  0.1603166473538415  0.7411957208225608   T   T   T
  0.9459268615919915  0.1474884680935477  0.7506899862868504   T   T   T
 
  0.00000000E+00  0.00000000E+00  0.00000000E+00
  0.00000000E+00  0.00000000E+00  0.00000000E+00
  0.00000000E+00  0.00000000E+00  0.00000000E+00
  0.00000000E+00  0.00000000E+00  0.00000000E+00
  0.00000000E+00  0.00000000E+00  0.00000000E+00
  0.00000000E+00  0.00000000E+00  0.00000000E+00
  0.00000000E+00  0.00000000E+00  0.00000000E+00
  0.00000000E+00  0.00000000E+00  0.00000000E+00
  0.00000000E+00  0.00000000E+00  0.00000000E+00
  0.00000000E+00  0.00000000E+00  0.00000000E+00
  0.00000000E+00  0.00000000E+00  0.00000000E+00
  0.00000000E+00  0.00000000E+00  0.00000000E+00
  0.00000000E+00  0.00000000E+00  0.00000000E+00
  0.00000000E+00  0.00000000E+00  0.00000000E+00
  0.00000000E+00  0.00000000E+00  0.00000000E+00
  0.00000000E+00  0.00000000E+00  0.00000000E+00
  0.00000000E+00  0.00000000E+00  0.00000000E+00
  0.00000000E+00  0.00000000E+00  0.00000000E+00
  0.00000000E+00  0.00000000E+00  0.00000000E+00
  0.00000000E+00  0.00000000E+00  0.00000000E+00
  0.00000000E+00  0.00000000E+00  0.00000000E+00
  0.00000000E+00  0.00000000E+00  0.00000000E+00
  0.00000000E+00  0.00000000E+00  0.00000000E+00
  0.00000000E+00  0.00000000E+00  0.00000000E+00
  0.00000000E+00  0.00000000E+00  0.00000000E+00
  0.00000000E+00  0.00000000E+00  0.00000000E+00
  0.00000000E+00  0.00000000E+00  0.00000000E+00
  0.00000000E+00  0.00000000E+00  0.00000000E+00
  0.00000000E+00  0.00000000E+00  0.00000000E+00
  0.00000000E+00  0.00000000E+00  0.00000000E+00
  0.00000000E+00  0.00000000E+00  0.00000000E+00
  0.00000000E+00  0.00000000E+00  0.00000000E+00
  0.00000000E+00  0.00000000E+00  0.00000000E+00
  0.00000000E+00  0.00000000E+00  0.00000000E+00
  0.00000000E+00  0.00000000E+00  0.00000000E+00
  0.00000000E+00  0.00000000E+00  0.00000000E+00
  0.00000000E+00  0.00000000E+00  0.00000000E+00
  0.00000000E+00  0.00000000E+00  0.00000000E+00
