Ce12 C1 O25                             
   1.00000000000000     
     7.7074639999999999    0.0000000000000000    0.0000000000000000
    -3.8537319999999999    6.6748599999999998    0.0000000000000000
     0.0000000000000000    0.0000000000000000   28.3190309999999990
   Ce   O    C    O 
    12    24     1     1
Selective dynamics
Direct
  0.1680368948212518  0.3339852125288782  0.3878709709636852   T   T   T
  0.1680368948212518  0.8340506822923838  0.3878709709636852   T   T   T
  0.6681916095367273  0.3340953047683685  0.3878464994331005   T   T   T
  0.6683797046149360  0.8341893523074730  0.3877775845501819   T   T   T
  0.0001717546618101  0.0000858773309051  0.6141725358682563   T   T   T
  0.0024486746503838  0.5012243373251919  0.6130081832989087   T   T   T
  0.5014757576233941  0.0009211569360413  0.6129172323698623   T   T   T
  0.5014757576233941  0.5005546006873527  0.6129172323698623   T   T   T
  0.3344075611520968  0.1672042805760436  0.5005157152866239   T   T   T
  0.3351774254408565  0.6675892127204229  0.5003106725412938   T   T   T
  0.8351908169396535  0.1674549483557253  0.5004925440608181   T   T   T
  0.8351908169396535  0.6677368685839192  0.5004925440608181   T   T   T
  0.1686996848259746  0.3345516315586491  0.4716487435798360   T   T   T
  0.1686996848259746  0.8341470532673352  0.4716487435798360   T   T   T
  0.6680024577765239  0.3340007288882668  0.4712934809893064   T   T   T
  0.6677209194886911  0.8338599597443506  0.4714666694962159   T   T   T
  0.0011019987830318  0.0005509993915159  0.3593126302083940   T   T   T
  0.0015221887010018  0.5007610943505009  0.3595818594090454   T   T   T
  0.5017747245299207  0.0006475720910230  0.3595820036186569   T   T   T
  0.5017747245299207  0.5011271524388976  0.3595820036186569   T   T   T
  0.3328732326159978  0.1664371163079941  0.5847063188094944   T   T   T
  0.3344163460011726  0.6672086730005820  0.5839725261115318   T   T   T
  0.8361036027494011  0.1675595246313940  0.5848049093494527   T   T   T
  0.8361036027494011  0.6685450781179969  0.5848049093494527   T   T   T
  0.0007888853703722  0.0003944426851861  0.5293015530768116   T   T   T
  0.0008633018331608  0.5004316509165806  0.5294453882592753   T   T   T
  0.5024527803905448  0.0021814056305060  0.5295201623343311   T   T   T
  0.5024527803905448  0.5002713747600382  0.5295201623343311   T   T   T
  0.3342391017510275  0.1671200508755089  0.4164908011975575   T   T   T
  0.3344972200564140  0.6672491100282022  0.4165482127088742   T   T   T
  0.8353310376558496  0.1676656593376441  0.4165939889389575   T   T   T
  0.8353310376558496  0.6676663783181954  0.4165939889389575   T   T   T
  0.1706931235279898  0.3377672484005747  0.6419562852672499   T   T   T
  0.1706931235279898  0.8329248751274251  0.6419562852672499   T   T   T
  0.6685180525939973  0.3342585262970035  0.6414289023017733   T   T   T
  0.6642015340804815  0.8321002670402452  0.6412557177286777   T   T   T
  0.0524086745266006  0.0262048372633026  0.7155685883870543   T   T   T
  0.1127745102367585  0.0563877551183816  0.7533384793719211   T   T   T
 
  0.00000000E+00  0.00000000E+00  0.00000000E+00
  0.00000000E+00  0.00000000E+00  0.00000000E+00
  0.00000000E+00  0.00000000E+00  0.00000000E+00
  0.00000000E+00  0.00000000E+00  0.00000000E+00
  0.00000000E+00  0.00000000E+00  0.00000000E+00
  0.00000000E+00  0.00000000E+00  0.00000000E+00
  0.00000000E+00  0.00000000E+00  0.00000000E+00
  0.00000000E+00  0.00000000E+00  0.00000000E+00
  0.00000000E+00  0.00000000E+00  0.00000000E+00
  0.00000000E+00  0.00000000E+00  0.00000000E+00
  0.00000000E+00  0.00000000E+00  0.00000000E+00
  0.00000000E+00  0.00000000E+00  0.00000000E+00
  0.00000000E+00  0.00000000E+00  0.00000000E+00
  0.00000000E+00  0.00000000E+00  0.00000000E+00
  0.00000000E+00  0.00000000E+00  0.00000000E+00
  0.00000000E+00  0.00000000E+00  0.00000000E+00
  0.00000000E+00  0.00000000E+00  0.00000000E+00
  0.00000000E+00  0.00000000E+00  0.00000000E+00
  0.00000000E+00  0.00000000E+00  0.00000000E+00
  0.00000000E+00  0.00000000E+00  0.00000000E+00
  0.00000000E+00  0.00000000E+00  0.00000000E+00
  0.00000000E+00  0.00000000E+00  0.00000000E+00
  0.00000000E+00  0.00000000E+00  0.00000000E+00
  0.00000000E+00  0.00000000E+00  0.00000000E+00
  0.00000000E+00  0.00000000E+00  0.00000000E+00
  0.00000000E+00  0.00000000E+00  0.00000000E+00
  0.00000000E+00  0.00000000E+00  0.00000000E+00
  0.00000000E+00  0.00000000E+00  0.00000000E+00
  0.00000000E+00  0.00000000E+00  0.00000000E+00
  0.00000000E+00  0.00000000E+00  0.00000000E+00
  0.00000000E+00  0.00000000E+00  0.00000000E+00
  0.00000000E+00  0.00000000E+00  0.00000000E+00
  0.00000000E+00  0.00000000E+00  0.00000000E+00
  0.00000000E+00  0.00000000E+00  0.00000000E+00
  0.00000000E+00  0.00000000E+00  0.00000000E+00
  0.00000000E+00  0.00000000E+00  0.00000000E+00
  0.00000000E+00  0.00000000E+00  0.00000000E+00
  0.00000000E+00  0.00000000E+00  0.00000000E+00
