Ce12 C1 O25                             
   1.00000000000000     
     7.7074639999999999    0.0000000000000000    0.0000000000000000
    -3.8537319999999999    6.6748599999999998    0.0000000000000000
     0.0000000000000000    0.0000000000000000   28.3190309999999990
   Ce   O    C    O 
    12    24     1     1
Selective dynamics
Direct
  0.1670085945707355  0.3331015683731325  0.3866307423666612   T   T   T
  0.1669954457060203  0.8330375801892366  0.3866273126536137   T   T   T
  0.6670410872056135  0.3331098833377599  0.3866285101020971   T   T   T
  0.6670248874328523  0.8330588058711552  0.3866428246744528   T   T   T
  0.0001378638615489 -0.0003645262716448  0.6117653110205097   T   T   T
  0.0003745871910893  0.4996981645137226  0.6117080226265809   T   T   T
  0.5006049904750516 -0.0004273598982956  0.6118405616662459   T   T   T
  0.5003727318874853  0.4995761614714807  0.6116661034261560   T   T   T
  0.3335840864492204  0.1662726881383093  0.4991608837972497   T   T   T
  0.3337324688312405  0.6664022927390350  0.4991619989483307   T   T   T
  0.8336330565371994  0.1664273580253567  0.4991365516817876   T   T   T
  0.8336936675031911  0.6664424785512405  0.4991421692673367   T   T   T
  0.1670647997955018  0.3331171774138449  0.4701764445357565   T   T   T
  0.1668884513146629  0.8330320330646732  0.4703176489277769   T   T   T
  0.6670577187668880  0.3332062017284209  0.4702505542278888   T   T   T
  0.6670233248593853  0.8328978730547489  0.4702894289350300   T   T   T
  0.0001831475336002 -0.0003541684539049  0.3583316839175810   T   T   T
  0.0003822208078571  0.4996963956258564  0.3583326934371497   T   T   T
  0.5004961760613361 -0.0003767337263265  0.3584143425990739   T   T   T
  0.5004542027880667  0.4998743695541356  0.3583494551028479   T   T   T
  0.3334124531247897  0.1658269753012496  0.5831442844198942   T   T   T
  0.3336153216964626  0.6665065015987769  0.5830922052564417   T   T   T
  0.8335983756001695  0.1664492420413296  0.5831712284566831   T   T   T
  0.8339054302492545  0.6665000939551918  0.5829979319029258   T   T   T
  0.0002828535209383 -0.0000158832925603  0.5281175657589648   T   T   T
  0.0005459809140412  0.4997160302054084  0.5280488430298094   T   T   T
  0.5003411381654247 -0.0003444248726867  0.5281694026646130   T   T   T
  0.5001019107458999  0.4994122258433780  0.5280853844688682   T   T   T
  0.3337328306730384  0.1664167008520389  0.4152973819647436   T   T   T
  0.3337681440517983  0.6664475588926327  0.4153646103477502   T   T   T
  0.8336212033462858  0.1663551454486256  0.4153000556903084   T   T   T
  0.8336568646437031  0.6663881127312429  0.4153212098892744   T   T   T
  0.1673656427154645  0.3330727155318524  0.6399814115009305   T   T   T
  0.1665394903931454  0.8328410115158045  0.6401986157228987   T   T   T
  0.6668630025990349  0.3331863911375513  0.6400564098730821   T   T   T
  0.6670081692681844  0.8327924327385917  0.6398593589345120   T   T   T
  0.3321829295315394  0.0118324423233737  0.7428541721956347   T   T   T
  0.4705387491822854 -0.0008115152537394  0.7341566840085380   T   T   T
 
  0.00000000E+00  0.00000000E+00  0.00000000E+00
  0.00000000E+00  0.00000000E+00  0.00000000E+00
  0.00000000E+00  0.00000000E+00  0.00000000E+00
  0.00000000E+00  0.00000000E+00  0.00000000E+00
  0.00000000E+00  0.00000000E+00  0.00000000E+00
  0.00000000E+00  0.00000000E+00  0.00000000E+00
  0.00000000E+00  0.00000000E+00  0.00000000E+00
  0.00000000E+00  0.00000000E+00  0.00000000E+00
  0.00000000E+00  0.00000000E+00  0.00000000E+00
  0.00000000E+00  0.00000000E+00  0.00000000E+00
  0.00000000E+00  0.00000000E+00  0.00000000E+00
  0.00000000E+00  0.00000000E+00  0.00000000E+00
  0.00000000E+00  0.00000000E+00  0.00000000E+00
  0.00000000E+00  0.00000000E+00  0.00000000E+00
  0.00000000E+00  0.00000000E+00  0.00000000E+00
  0.00000000E+00  0.00000000E+00  0.00000000E+00
  0.00000000E+00  0.00000000E+00  0.00000000E+00
  0.00000000E+00  0.00000000E+00  0.00000000E+00
  0.00000000E+00  0.00000000E+00  0.00000000E+00
  0.00000000E+00  0.00000000E+00  0.00000000E+00
  0.00000000E+00  0.00000000E+00  0.00000000E+00
  0.00000000E+00  0.00000000E+00  0.00000000E+00
  0.00000000E+00  0.00000000E+00  0.00000000E+00
  0.00000000E+00  0.00000000E+00  0.00000000E+00
  0.00000000E+00  0.00000000E+00  0.00000000E+00
  0.00000000E+00  0.00000000E+00  0.00000000E+00
  0.00000000E+00  0.00000000E+00  0.00000000E+00
  0.00000000E+00  0.00000000E+00  0.00000000E+00
  0.00000000E+00  0.00000000E+00  0.00000000E+00
  0.00000000E+00  0.00000000E+00  0.00000000E+00
  0.00000000E+00  0.00000000E+00  0.00000000E+00
  0.00000000E+00  0.00000000E+00  0.00000000E+00
  0.00000000E+00  0.00000000E+00  0.00000000E+00
  0.00000000E+00  0.00000000E+00  0.00000000E+00
  0.00000000E+00  0.00000000E+00  0.00000000E+00
  0.00000000E+00  0.00000000E+00  0.00000000E+00
  0.00000000E+00  0.00000000E+00  0.00000000E+00
  0.00000000E+00  0.00000000E+00  0.00000000E+00
