Ce12 C1 O25                             
   1.00000000000000     
     7.7074639999999999    0.0000000000000000    0.0000000000000000
    -3.8537319999999999    6.6748599999999998    0.0000000000000000
     0.0000000000000000    0.0000000000000000   28.3190309999999990
   Ce   O    C    O 
    12    24     1     1
Selective dynamics
Direct
  0.1663781692242408  0.3336218307757592  0.3868925857459045   T   T   T
  0.1664432336554810  0.8338003901246305  0.3869731519233546   T   T   T
  0.6661996098753695  0.3335567663445193  0.3869731519233546   T   T   T
  0.6662708220189451  0.8337291779810549  0.3869741732260607   T   T   T
 -0.0007481590727561  0.0010423543473582  0.6118032599652422   T   T   T
 -0.0009122680464417  0.5009122680464417  0.6117764977930484   T   T   T
  0.4993034150209754  0.0006965849790247  0.6120215468754236   T   T   T
  0.4989576456526418  0.5007481590727559  0.6118032599652422   T   T   T
  0.3328200333255842  0.1671799666744157  0.4994681490565154   T   T   T
  0.3326252411423790  0.6672589424460063  0.4994366371820950   T   T   T
  0.8327410575539937  0.1673747588576210  0.4994366371820950   T   T   T
  0.8326292556557553  0.6673707443442447  0.4994370442884962   T   T   T
  0.1659797032124126  0.3340202967875870  0.4703378792904267   T   T   T
  0.1660769395234073  0.8338205113846865  0.4705343094774723   T   T   T
  0.6661794886153135  0.3339230604765929  0.4705343094774723   T   T   T
  0.6661348998168265  0.8338651001831735  0.4705385031837286   T   T   T
  0.0001159109354847  0.0005448607524099  0.3587002187547244   T   T   T
 -0.0002690268769668  0.5002690268769666  0.3587842624972629   T   T   T
  0.4995706277458551  0.0004293722541454  0.3587154301773998   T   T   T
  0.4994551392475902  0.4998840890645154  0.3587002187547244   T   T   T
  0.3324901861261345  0.1675098138738655  0.5833128623269704   T   T   T
  0.3329455720438177  0.6675387489216276  0.5831025968469600   T   T   T
  0.8324612510783724  0.1670544279561821  0.5831025968469600   T   T   T
  0.8321146051194119  0.6678853948805881  0.5831657447449177   T   T   T
 -0.0003626802535078  0.0009526468422569  0.5283766752208851   T   T   T
 -0.0008360624785249  0.5008360624785247  0.5284409494270462   T   T   T
  0.4993878417040473  0.0006121582959526  0.5284745107174222   T   T   T
  0.4990473531577430  0.5003626802535077  0.5283766752208851   T   T   T
  0.3331053524137348  0.1668946475862650  0.4157033505581587   T   T   T
  0.3333523444491199  0.6674939119816896  0.4156423627621240   T   T   T
  0.8325060880183104  0.1666476555508803  0.4156423627621240   T   T   T
  0.8328002695037450  0.6671997304962550  0.4156668933833271   T   T   T
  0.1648705743639414  0.3351294256360586  0.6398655128154314   T   T   T
  0.1656897400235231  0.8336542026211923  0.6400231685573392   T   T   T
  0.6663457973788077  0.3343102599764770  0.6400231685573392   T   T   T
  0.6656229852980077  0.8343770147019923  0.6403144043520378   T   T   T
  0.2728473089155583  0.2271526910844416  0.7732203675142869   T   T   T
  0.3052157349116606  0.1947842650883393  0.7358205706457405   T   T   T
 
  0.00000000E+00  0.00000000E+00  0.00000000E+00
  0.00000000E+00  0.00000000E+00  0.00000000E+00
  0.00000000E+00  0.00000000E+00  0.00000000E+00
  0.00000000E+00  0.00000000E+00  0.00000000E+00
  0.00000000E+00  0.00000000E+00  0.00000000E+00
  0.00000000E+00  0.00000000E+00  0.00000000E+00
  0.00000000E+00  0.00000000E+00  0.00000000E+00
  0.00000000E+00  0.00000000E+00  0.00000000E+00
  0.00000000E+00  0.00000000E+00  0.00000000E+00
  0.00000000E+00  0.00000000E+00  0.00000000E+00
  0.00000000E+00  0.00000000E+00  0.00000000E+00
  0.00000000E+00  0.00000000E+00  0.00000000E+00
  0.00000000E+00  0.00000000E+00  0.00000000E+00
  0.00000000E+00  0.00000000E+00  0.00000000E+00
  0.00000000E+00  0.00000000E+00  0.00000000E+00
  0.00000000E+00  0.00000000E+00  0.00000000E+00
  0.00000000E+00  0.00000000E+00  0.00000000E+00
  0.00000000E+00  0.00000000E+00  0.00000000E+00
  0.00000000E+00  0.00000000E+00  0.00000000E+00
  0.00000000E+00  0.00000000E+00  0.00000000E+00
  0.00000000E+00  0.00000000E+00  0.00000000E+00
  0.00000000E+00  0.00000000E+00  0.00000000E+00
  0.00000000E+00  0.00000000E+00  0.00000000E+00
  0.00000000E+00  0.00000000E+00  0.00000000E+00
  0.00000000E+00  0.00000000E+00  0.00000000E+00
  0.00000000E+00  0.00000000E+00  0.00000000E+00
  0.00000000E+00  0.00000000E+00  0.00000000E+00
  0.00000000E+00  0.00000000E+00  0.00000000E+00
  0.00000000E+00  0.00000000E+00  0.00000000E+00
  0.00000000E+00  0.00000000E+00  0.00000000E+00
  0.00000000E+00  0.00000000E+00  0.00000000E+00
  0.00000000E+00  0.00000000E+00  0.00000000E+00
  0.00000000E+00  0.00000000E+00  0.00000000E+00
  0.00000000E+00  0.00000000E+00  0.00000000E+00
  0.00000000E+00  0.00000000E+00  0.00000000E+00
  0.00000000E+00  0.00000000E+00  0.00000000E+00
  0.00000000E+00  0.00000000E+00  0.00000000E+00
  0.00000000E+00  0.00000000E+00  0.00000000E+00
