Ce12 C1 O25                             
   1.00000000000000     
     7.7074639999999999    0.0000000000000000    0.0000000000000000
    -3.8537319999999999    6.6748599999999998    0.0000000000000000
     0.0000000000000000    0.0000000000000000   28.3190309999999990
   Ce   O    C    O 
    12    24     1     1
Selective dynamics
Direct
  0.1658097972265360  0.3330905775281583  0.3863140941691179   T   T   T
  0.1659733380500215  0.8332530790569602  0.3862332503234899   T   T   T
  0.6658586337995043  0.3330949363786029  0.3862210583455253   T   T   T
  0.6658997438310489  0.8332532619502208  0.3862152894428870   T   T   T
 -0.0010478735830699  0.0002691631656226  0.6112934816554895   T   T   T
 -0.0010625082934894  0.5005021946831572  0.6111641443861308   T   T   T
  0.4989016253129238  0.0002961888608799  0.6113163198635816   T   T   T
  0.4990513787983729  0.5005808187857307  0.6111075968017349   T   T   T
  0.3325006841287670  0.1667158549758965  0.4987506980171303   T   T   T
  0.3324278370376825  0.6668679013564400  0.4986910432447902   T   T   T
  0.8323673200264332  0.1667374093297155  0.4987365655048055   T   T   T
  0.8325660589631347  0.6668154563090567  0.4987061505684809   T   T   T
  0.1658475659883724  0.3333881680010573  0.4699573528866401   T   T   T
  0.1662059620303965  0.8335522429778831  0.4697835036433951   T   T   T
  0.6656648625575432  0.3330670898611693  0.4697902328467891   T   T   T
  0.6657011082932098  0.8336011500461793  0.4698025768645503   T   T   T
 -0.0008168475546526 -0.0000959678638023  0.3580458749106135   T   T   T
 -0.0009101945877684  0.4996157559266561  0.3580703344667526   T   T   T
  0.4993449357605546 -0.0000861683070310  0.3579481097212190   T   T   T
  0.4991644046819539  0.4997400412972802  0.3580846374887603   T   T   T
  0.3320007800417787  0.1668678658609408  0.5825722730865397   T   T   T
  0.3320746825369809  0.6669171866174116  0.5824173194390885   T   T   T
  0.8326578609835150  0.1672626530555184  0.5825597461791570   T   T   T
  0.8324485009531233  0.6669246507291865  0.5826271668422905   T   T   T
 -0.0009810085752607 -0.0001835834625368  0.5276700184262252   T   T   T
 -0.0011375375520142  0.5003785794840561  0.5275947668709077   T   T   T
  0.4988788957287026  0.0002489709733917  0.5277133690035676   T   T   T
  0.4994788394301613  0.5002941701406481  0.5276826989586665   T   T   T
  0.3324444544028168  0.1664681509605404  0.4149643852411985   T   T   T
  0.3324754987212393  0.6665405829810972  0.4149215433273783   T   T   T
  0.8325535192752138  0.1665525865659535  0.4149398498532237   T   T   T
  0.8327102713957011  0.6666797258862635  0.4150100946997510   T   T   T
  0.1660357681929475  0.3343705193834742  0.6395866358415573   T   T   T
  0.1660883705435514  0.8337295115522929  0.6393765826393645   T   T   T
  0.6654444790959755  0.3337660241891397  0.6394619104709200   T   T   T
  0.6657094395925142  0.8339807389365673  0.6392561115683864   T   T   T
  0.2804744145895836  0.3320666733300288  0.7465200382240348   T   T   T
  0.3922959381759937  0.5006318384961989  0.7466831741758586   T   T   T
 
  0.00000000E+00  0.00000000E+00  0.00000000E+00
  0.00000000E+00  0.00000000E+00  0.00000000E+00
  0.00000000E+00  0.00000000E+00  0.00000000E+00
  0.00000000E+00  0.00000000E+00  0.00000000E+00
  0.00000000E+00  0.00000000E+00  0.00000000E+00
  0.00000000E+00  0.00000000E+00  0.00000000E+00
  0.00000000E+00  0.00000000E+00  0.00000000E+00
  0.00000000E+00  0.00000000E+00  0.00000000E+00
  0.00000000E+00  0.00000000E+00  0.00000000E+00
  0.00000000E+00  0.00000000E+00  0.00000000E+00
  0.00000000E+00  0.00000000E+00  0.00000000E+00
  0.00000000E+00  0.00000000E+00  0.00000000E+00
  0.00000000E+00  0.00000000E+00  0.00000000E+00
  0.00000000E+00  0.00000000E+00  0.00000000E+00
  0.00000000E+00  0.00000000E+00  0.00000000E+00
  0.00000000E+00  0.00000000E+00  0.00000000E+00
  0.00000000E+00  0.00000000E+00  0.00000000E+00
  0.00000000E+00  0.00000000E+00  0.00000000E+00
  0.00000000E+00  0.00000000E+00  0.00000000E+00
  0.00000000E+00  0.00000000E+00  0.00000000E+00
  0.00000000E+00  0.00000000E+00  0.00000000E+00
  0.00000000E+00  0.00000000E+00  0.00000000E+00
  0.00000000E+00  0.00000000E+00  0.00000000E+00
  0.00000000E+00  0.00000000E+00  0.00000000E+00
  0.00000000E+00  0.00000000E+00  0.00000000E+00
  0.00000000E+00  0.00000000E+00  0.00000000E+00
  0.00000000E+00  0.00000000E+00  0.00000000E+00
  0.00000000E+00  0.00000000E+00  0.00000000E+00
  0.00000000E+00  0.00000000E+00  0.00000000E+00
  0.00000000E+00  0.00000000E+00  0.00000000E+00
  0.00000000E+00  0.00000000E+00  0.00000000E+00
  0.00000000E+00  0.00000000E+00  0.00000000E+00
  0.00000000E+00  0.00000000E+00  0.00000000E+00
  0.00000000E+00  0.00000000E+00  0.00000000E+00
  0.00000000E+00  0.00000000E+00  0.00000000E+00
  0.00000000E+00  0.00000000E+00  0.00000000E+00
  0.00000000E+00  0.00000000E+00  0.00000000E+00
  0.00000000E+00  0.00000000E+00  0.00000000E+00
