Ce12 C1 O25                             
   1.00000000000000     
     7.7074639999999999    0.0000000000000000    0.0000000000000000
    -3.8537319999999999    6.6748599999999998    0.0000000000000000
     0.0000000000000000    0.0000000000000000   28.3190309999999990
   Ce   O    C    O 
    12    24     1     1
Selective dynamics
Direct
  0.1675553294918163  0.3343443364481464  0.3869351493175575   T   T   T
  0.1675483540896910  0.8344147051196737  0.3869240486306331   T   T   T
  0.6675990528187324  0.3344390555514002  0.3870161069871783   T   T   T
  0.6676117613411431  0.8344192757204985  0.3869314319195951   T   T   T
  0.0014843236571808  0.0017882284183444  0.6117784153360172   T   T   T
  0.0013228809908678  0.5016380800716673  0.6114546395620871   T   T   T
  0.5017832563344651  0.0015051418036530  0.6113274574466969   T   T   T
  0.5013360582891065  0.5018375327144654  0.6113233673443799   T   T   T
  0.3341765945065446  0.1677637455573229  0.4992692600852228   T   T   T
  0.3342672353297512  0.6678500751774333  0.4991694769747184   T   T   T
  0.8344967935059530  0.1678099835409817  0.4992546942126839   T   T   T
  0.8345009174241269  0.6681199570684744  0.4992615179029173   T   T   T
  0.1675637348659903  0.3341382876005690  0.4704105135870463   T   T   T
  0.1676671961286883  0.8347968068657493  0.4704099929398182   T   T   T
  0.6675199276124221  0.3344070758630747  0.4705142062022564   T   T   T
  0.6679065420927799  0.8347185078591720  0.4703645317661294   T   T   T
  0.0009415290791225  0.0010843546161313  0.3586805490716634   T   T   T
  0.0010409897698180  0.5012776739346217  0.3587314995601736   T   T   T
  0.5009533135360944  0.0010440847400173  0.3587652113765772   T   T   T
  0.5010736421538102  0.5012989560620139  0.3587480719988463   T   T   T
  0.3345178129115789  0.1678528212238765  0.5828891879950043   T   T   T
  0.3344905670191659  0.6684264077032408  0.5828806818085116   T   T   T
  0.8345736401819407  0.1681510500890252  0.5829121092273710   T   T   T
  0.8350283580144987  0.6685930199343689  0.5828429218548998   T   T   T
  0.0010622419553936  0.0013570362288260  0.5281754460630942   T   T   T
  0.0013548983308990  0.5014024507112045  0.5279960266448803   T   T   T
  0.5010938482301360  0.0009681231669755  0.5280411674932526   T   T   T
  0.5009869189112780  0.5015993226327230  0.5280210486317997   T   T   T
  0.3343278435795911  0.1678508918261966  0.4155290291476254   T   T   T
  0.3341112067804705  0.6676017248612460  0.4156012015007122   T   T   T
  0.8343842960535189  0.1679714165279201  0.4155309299758485   T   T   T
  0.8343181602806282  0.6677104818368568  0.4155743124912347   T   T   T
  0.1680969209827804  0.3353455326167809  0.6394808552461159   T   T   T
  0.1681001303300191  0.8347404444524416  0.6398898203964792   T   T   T
  0.6680340229438040  0.3356170199094394  0.6393898886006336   T   T   T
  0.6679221104458677  0.8347704538524321  0.6395878233335546   T   T   T
  0.3181798488867424  0.0953706782462244  0.7352933308056254   T   T   T
  0.4559017411435875  0.0781972594468137  0.7408840765611580   T   T   T
 
  0.00000000E+00  0.00000000E+00  0.00000000E+00
  0.00000000E+00  0.00000000E+00  0.00000000E+00
  0.00000000E+00  0.00000000E+00  0.00000000E+00
  0.00000000E+00  0.00000000E+00  0.00000000E+00
  0.00000000E+00  0.00000000E+00  0.00000000E+00
  0.00000000E+00  0.00000000E+00  0.00000000E+00
  0.00000000E+00  0.00000000E+00  0.00000000E+00
  0.00000000E+00  0.00000000E+00  0.00000000E+00
  0.00000000E+00  0.00000000E+00  0.00000000E+00
  0.00000000E+00  0.00000000E+00  0.00000000E+00
  0.00000000E+00  0.00000000E+00  0.00000000E+00
  0.00000000E+00  0.00000000E+00  0.00000000E+00
  0.00000000E+00  0.00000000E+00  0.00000000E+00
  0.00000000E+00  0.00000000E+00  0.00000000E+00
  0.00000000E+00  0.00000000E+00  0.00000000E+00
  0.00000000E+00  0.00000000E+00  0.00000000E+00
  0.00000000E+00  0.00000000E+00  0.00000000E+00
  0.00000000E+00  0.00000000E+00  0.00000000E+00
  0.00000000E+00  0.00000000E+00  0.00000000E+00
  0.00000000E+00  0.00000000E+00  0.00000000E+00
  0.00000000E+00  0.00000000E+00  0.00000000E+00
  0.00000000E+00  0.00000000E+00  0.00000000E+00
  0.00000000E+00  0.00000000E+00  0.00000000E+00
  0.00000000E+00  0.00000000E+00  0.00000000E+00
  0.00000000E+00  0.00000000E+00  0.00000000E+00
  0.00000000E+00  0.00000000E+00  0.00000000E+00
  0.00000000E+00  0.00000000E+00  0.00000000E+00
  0.00000000E+00  0.00000000E+00  0.00000000E+00
  0.00000000E+00  0.00000000E+00  0.00000000E+00
  0.00000000E+00  0.00000000E+00  0.00000000E+00
  0.00000000E+00  0.00000000E+00  0.00000000E+00
  0.00000000E+00  0.00000000E+00  0.00000000E+00
  0.00000000E+00  0.00000000E+00  0.00000000E+00
  0.00000000E+00  0.00000000E+00  0.00000000E+00
  0.00000000E+00  0.00000000E+00  0.00000000E+00
  0.00000000E+00  0.00000000E+00  0.00000000E+00
  0.00000000E+00  0.00000000E+00  0.00000000E+00
  0.00000000E+00  0.00000000E+00  0.00000000E+00
