Ce12 C1 O25                             
   1.00000000000000     
     7.7074639999999999    0.0000000000000000    0.0000000000000000
    -3.8537319999999999    6.6748599999999998    0.0000000000000000
     0.0000000000000000    0.0000000000000000   28.3190309999999990
   Ce   O    C    O 
    12    24     1     1
Selective dynamics
Direct
  0.1673906010774277  0.3343900456148663  0.3864264882142596   T   T   T
  0.1673162420678074  0.8343885956363473  0.3864169582438692   T   T   T
  0.6674829892140336  0.3345527846628016  0.3864169623605701   T   T   T
  0.6674890945549090  0.8343947670186589  0.3864158934452332   T   T   T
  0.0004545118189806  0.0003718735506058  0.6114814633356919   T   T   T
  0.0007641492002369  0.5013533916127895  0.6114882424338228   T   T   T
  0.5008236819045861  0.0011982753619555  0.6114502694081695   T   T   T
  0.5009095586919620  0.5013000885642029  0.6114469875411599   T   T   T
  0.3340966076618719  0.1677838983396950  0.4989468259291621   T   T   T
  0.3340776263163300  0.6677800566491225  0.4989243457430321   T   T   T
  0.8341313997985482  0.1677952770581564  0.4989535916716326   T   T   T
  0.8340416401532967  0.6676977375903128  0.4989006069572384   T   T   T
  0.1673002202307536  0.3342519363154044  0.4699890900639338   T   T   T
  0.1673371242257097  0.8345019654639254  0.4700575531854079   T   T   T
  0.6674549201482300  0.3344751637217123  0.4700227280678587   T   T   T
  0.6675925454200683  0.8345261375455034  0.4700626575537926   T   T   T
  0.0008488201531743  0.0012205600476194  0.3581574239966016   T   T   T
  0.0008185107555598  0.5010677435724837  0.3581596050936198   T   T   T
  0.5007518107781042  0.0011291038297127  0.3582424765681612   T   T   T
  0.5006388503293306  0.5010315647602379  0.3581464180201751   T   T   T
  0.3342499825747932  0.1679867695914499  0.5828001885744654   T   T   T
  0.3340391078473404  0.6677840848710979  0.5828161618711175   T   T   T
  0.8342893368884177  0.1679975309357298  0.5828171702879057   T   T   T
  0.8338513421950994  0.6673749282996848  0.5827847283334799   T   T   T
  0.0007109867163327  0.0009800124896263  0.5278787814760941   T   T   T
  0.0007164760339621  0.5010667820540864  0.5279007871413222   T   T   T
  0.5009058974049748  0.0012790476753842  0.5278554533934752   T   T   T
  0.5006950483488226  0.5011009136073047  0.5279211247508313   T   T   T
  0.3340280709396084  0.1680981956408649  0.4150576909549505   T   T   T
  0.3339120033823731  0.6673507840883101  0.4150996610046190   T   T   T
  0.8344725412159359  0.1680715544538563  0.4150578038367932   T   T   T
  0.8340359987375827  0.6676740998761058  0.4151390989515472   T   T   T
  0.1680112470782475  0.3351851412112296  0.6397608233365646   T   T   T
  0.1673795260554267  0.8344178023522956  0.6395782066056789   T   T   T
  0.6674185408518811  0.3343628618227201  0.6398196002281876   T   T   T
  0.6672344576179590  0.8342946097765732  0.6395880456344872   T   T   T
  0.0863690844896335  0.2562232383439378  0.7457632491840086   T   T   T
  0.0226364471206872  0.0880066759936272  0.7400448366010745   T   T   T
 
  0.00000000E+00  0.00000000E+00  0.00000000E+00
  0.00000000E+00  0.00000000E+00  0.00000000E+00
  0.00000000E+00  0.00000000E+00  0.00000000E+00
  0.00000000E+00  0.00000000E+00  0.00000000E+00
  0.00000000E+00  0.00000000E+00  0.00000000E+00
  0.00000000E+00  0.00000000E+00  0.00000000E+00
  0.00000000E+00  0.00000000E+00  0.00000000E+00
  0.00000000E+00  0.00000000E+00  0.00000000E+00
  0.00000000E+00  0.00000000E+00  0.00000000E+00
  0.00000000E+00  0.00000000E+00  0.00000000E+00
  0.00000000E+00  0.00000000E+00  0.00000000E+00
  0.00000000E+00  0.00000000E+00  0.00000000E+00
  0.00000000E+00  0.00000000E+00  0.00000000E+00
  0.00000000E+00  0.00000000E+00  0.00000000E+00
  0.00000000E+00  0.00000000E+00  0.00000000E+00
  0.00000000E+00  0.00000000E+00  0.00000000E+00
  0.00000000E+00  0.00000000E+00  0.00000000E+00
  0.00000000E+00  0.00000000E+00  0.00000000E+00
  0.00000000E+00  0.00000000E+00  0.00000000E+00
  0.00000000E+00  0.00000000E+00  0.00000000E+00
  0.00000000E+00  0.00000000E+00  0.00000000E+00
  0.00000000E+00  0.00000000E+00  0.00000000E+00
  0.00000000E+00  0.00000000E+00  0.00000000E+00
  0.00000000E+00  0.00000000E+00  0.00000000E+00
  0.00000000E+00  0.00000000E+00  0.00000000E+00
  0.00000000E+00  0.00000000E+00  0.00000000E+00
  0.00000000E+00  0.00000000E+00  0.00000000E+00
  0.00000000E+00  0.00000000E+00  0.00000000E+00
  0.00000000E+00  0.00000000E+00  0.00000000E+00
  0.00000000E+00  0.00000000E+00  0.00000000E+00
  0.00000000E+00  0.00000000E+00  0.00000000E+00
  0.00000000E+00  0.00000000E+00  0.00000000E+00
  0.00000000E+00  0.00000000E+00  0.00000000E+00
  0.00000000E+00  0.00000000E+00  0.00000000E+00
  0.00000000E+00  0.00000000E+00  0.00000000E+00
  0.00000000E+00  0.00000000E+00  0.00000000E+00
  0.00000000E+00  0.00000000E+00  0.00000000E+00
  0.00000000E+00  0.00000000E+00  0.00000000E+00
