Ce12 C1 O25                             
   1.00000000000000     
     7.7074639999999999    0.0000000000000000    0.0000000000000000
    -3.8537319999999999    6.6748599999999998    0.0000000000000000
     0.0000000000000000    0.0000000000000000   28.3190309999999990
   Ce   O    C    O 
    12    24     1     1
Selective dynamics
Direct
  0.1671115932355724  0.3331785929318918  0.3864128451536115   T   T   T
  0.1672250057713488  0.8331961170128023  0.3864751718717536   T   T   T
  0.6670936270310306  0.3330811545252602  0.3865160691350825   T   T   T
  0.6670827376727723  0.8332203421348570  0.3864624159859453   T   T   T
  0.0010629209171718  0.0003315515023165  0.6114131656820239   T   T   T
  0.0016141912531507  0.5007169198311566  0.6110805764967382   T   T   T
  0.5011777731725731  0.0005583514465601  0.6113736923174999   T   T   T
  0.5012965434322907  0.5004273451928732  0.6112626683340465   T   T   T
  0.3340493971005200  0.1666829374211612  0.4989560871906246   T   T   T
  0.3344366921278868  0.6668752534252975  0.4988910685973174   T   T   T
  0.8341388779805564  0.1665913399136661  0.4989370280253960   T   T   T
  0.8342529140990363  0.6666271018527183  0.4989499485008553   T   T   T
  0.1674638994162758  0.3332974648578451  0.4700406419572450   T   T   T
  0.1676402273499502  0.8332868243538912  0.4700600758160642   T   T   T
  0.6674935467096480  0.3331975197588427  0.4700870619573323   T   T   T
  0.6672331173829110  0.8333617730001914  0.4701414509970427   T   T   T
  0.0003189358665740 -0.0000343124877854  0.3582303928216921   T   T   T
  0.0005789016239979  0.4997263250704216  0.3581727981569663   T   T   T
  0.5004393532923147 -0.0002570679012213  0.3581937974702339   T   T   T
  0.5002394612880516  0.4999117341363638  0.3582309994435147   T   T   T
  0.3339067508187363  0.1673869938455231  0.5827140476428729   T   T   T
  0.3346412879242054  0.6668892093714068  0.5825307721895850   T   T   T
  0.8350994832182183  0.1670816419015601  0.5827073801646966   T   T   T
  0.8346489415357641  0.6668522912793907  0.5827204818844492   T   T   T
  0.0007666453627649 -0.0002807214470841  0.5277450212741768   T   T   T
  0.0010309083131909  0.5000844124391731  0.5277702479128299   T   T   T
  0.5009528372413580  0.0006893043171610  0.5279825933497406   T   T   T
  0.5012833265432727  0.5000087794825362  0.5277104828502158   T   T   T
  0.3340437578491164  0.1663401764994534  0.4150839102748400   T   T   T
  0.3339977396268708  0.6668104210436178  0.4150639072786729   T   T   T
  0.8335528761498209  0.1663926302550710  0.4151189199890544   T   T   T
  0.8338974490673581  0.6665202002379045  0.4150831277459485   T   T   T
  0.1683913754338257  0.3343457702778691  0.6395854890269145   T   T   T
  0.1686616389810378  0.8341215032453380  0.6392217339938839   T   T   T
  0.6679843058146997  0.3330753134389272  0.6394160548488840   T   T   T
  0.6673929736399467  0.8336336551999955  0.6394800020158938   T   T   T
  0.0515334520318177  0.3321941049441474  0.7440618201266298   T   T   T
  0.1129205337243661  0.5016330456889025  0.7439060515197240   T   T   T
 
  0.00000000E+00  0.00000000E+00  0.00000000E+00
  0.00000000E+00  0.00000000E+00  0.00000000E+00
  0.00000000E+00  0.00000000E+00  0.00000000E+00
  0.00000000E+00  0.00000000E+00  0.00000000E+00
  0.00000000E+00  0.00000000E+00  0.00000000E+00
  0.00000000E+00  0.00000000E+00  0.00000000E+00
  0.00000000E+00  0.00000000E+00  0.00000000E+00
  0.00000000E+00  0.00000000E+00  0.00000000E+00
  0.00000000E+00  0.00000000E+00  0.00000000E+00
  0.00000000E+00  0.00000000E+00  0.00000000E+00
  0.00000000E+00  0.00000000E+00  0.00000000E+00
  0.00000000E+00  0.00000000E+00  0.00000000E+00
  0.00000000E+00  0.00000000E+00  0.00000000E+00
  0.00000000E+00  0.00000000E+00  0.00000000E+00
  0.00000000E+00  0.00000000E+00  0.00000000E+00
  0.00000000E+00  0.00000000E+00  0.00000000E+00
  0.00000000E+00  0.00000000E+00  0.00000000E+00
  0.00000000E+00  0.00000000E+00  0.00000000E+00
  0.00000000E+00  0.00000000E+00  0.00000000E+00
  0.00000000E+00  0.00000000E+00  0.00000000E+00
  0.00000000E+00  0.00000000E+00  0.00000000E+00
  0.00000000E+00  0.00000000E+00  0.00000000E+00
  0.00000000E+00  0.00000000E+00  0.00000000E+00
  0.00000000E+00  0.00000000E+00  0.00000000E+00
  0.00000000E+00  0.00000000E+00  0.00000000E+00
  0.00000000E+00  0.00000000E+00  0.00000000E+00
  0.00000000E+00  0.00000000E+00  0.00000000E+00
  0.00000000E+00  0.00000000E+00  0.00000000E+00
  0.00000000E+00  0.00000000E+00  0.00000000E+00
  0.00000000E+00  0.00000000E+00  0.00000000E+00
  0.00000000E+00  0.00000000E+00  0.00000000E+00
  0.00000000E+00  0.00000000E+00  0.00000000E+00
  0.00000000E+00  0.00000000E+00  0.00000000E+00
  0.00000000E+00  0.00000000E+00  0.00000000E+00
  0.00000000E+00  0.00000000E+00  0.00000000E+00
  0.00000000E+00  0.00000000E+00  0.00000000E+00
  0.00000000E+00  0.00000000E+00  0.00000000E+00
  0.00000000E+00  0.00000000E+00  0.00000000E+00
