Ce12 C1 O25                             
   1.00000000000000     
     7.7074639999999999    0.0000000000000000    0.0000000000000000
    -3.8537319999999999    6.6748599999999998    0.0000000000000000
     0.0000000000000000    0.0000000000000000   28.3190309999999990
   Ce   O    C    O 
    12    24     1     1
Selective dynamics
Direct
  0.1668926437959591  0.3339871752387455  0.3867375601668909   T   T   T
  0.1670243095099349  0.8342813752269911  0.3867641345160006   T   T   T
  0.6668457768364078  0.3339338799130803  0.3869511351465397   T   T   T
  0.6670307620927598  0.8342704672550552  0.3867596569728978   T   T   T
  0.0008129009285445  0.0012997980780575  0.6131392378738394   T   T   T
  0.0014757728085628  0.5024749254023818  0.6116639766452047   T   T   T
  0.5012453169715637  0.0018651591973082  0.6117810160132398   T   T   T
  0.5016234608762333  0.5025825621492207  0.6116525113325169   T   T   T
  0.3335101457624999  0.1676539181051490  0.4995287968221963   T   T   T
  0.3340763646253505  0.6681127699901429  0.4992318522770980   T   T   T
  0.8341711803119413  0.1676923058147492  0.4995097551252636   T   T   T
  0.8341965023740957  0.6683865272279246  0.4993805871333810   T   T   T
  0.1674358950242853  0.3348912262613631  0.4705583492713681   T   T   T
  0.1678553077457651  0.8345071079851537  0.4705124393174414   T   T   T
  0.6670095118825771  0.3341055092014681  0.4704118603726589   T   T   T
  0.6665711781873634  0.8344502865343183  0.4705099168590845   T   T   T
  0.0002686768117935  0.0007722054446352  0.3583681355908701   T   T   T
  0.0000306468446379  0.5006774798704119  0.3585493358364837   T   T   T
  0.5003586202871416  0.0009621549697065  0.3583181945491417   T   T   T
  0.5003635567310489  0.5006941955424422  0.3585360126059883   T   T   T
  0.3324960740263145  0.1678249822668437  0.5836246309904229   T   T   T
  0.3347545073565794  0.6687842334340376  0.5826037315008961   T   T   T
  0.8356039094536687  0.1679106686738102  0.5836138595747135   T   T   T
  0.8351025557657858  0.6698508408416520  0.5837014964133831   T   T   T
  0.0005495164846863  0.0010323655690188  0.5281005377094051   T   T   T
 -0.0005863714097395  0.5010766045310179  0.5282652159718780   T   T   T
  0.5015045632174635  0.0028847829397882  0.5284345923476303   T   T   T
  0.5017182677900955  0.5009453569459111  0.5282687173832873   T   T   T
  0.3332929777624339  0.1671106285350275  0.4155240269752877   T   T   T
  0.3338180908510031  0.6678176110078189  0.4152089430511119   T   T   T
  0.8336130169028051  0.1670865594734545  0.4155162147006087   T   T   T
  0.8339257089999221  0.6680780903276707  0.4155033760136818   T   T   T
  0.1706762429076334  0.3410371556440490  0.6404616182177775   T   T   T
  0.1703000682642901  0.8336752778341743  0.6402938877352417   T   T   T
  0.6673556630683729  0.3346501407037049  0.6402590273477332   T   T   T
  0.6647690363672892  0.8340685636610341  0.6403490051971009   T   T   T
  0.0578861262184966  0.0788255786250268  0.7164723893474884   T   T   T
  0.1110775155644379  0.1519405295776587  0.7527242650942463   T   T   T
 
  0.00000000E+00  0.00000000E+00  0.00000000E+00
  0.00000000E+00  0.00000000E+00  0.00000000E+00
  0.00000000E+00  0.00000000E+00  0.00000000E+00
  0.00000000E+00  0.00000000E+00  0.00000000E+00
  0.00000000E+00  0.00000000E+00  0.00000000E+00
  0.00000000E+00  0.00000000E+00  0.00000000E+00
  0.00000000E+00  0.00000000E+00  0.00000000E+00
  0.00000000E+00  0.00000000E+00  0.00000000E+00
  0.00000000E+00  0.00000000E+00  0.00000000E+00
  0.00000000E+00  0.00000000E+00  0.00000000E+00
  0.00000000E+00  0.00000000E+00  0.00000000E+00
  0.00000000E+00  0.00000000E+00  0.00000000E+00
  0.00000000E+00  0.00000000E+00  0.00000000E+00
  0.00000000E+00  0.00000000E+00  0.00000000E+00
  0.00000000E+00  0.00000000E+00  0.00000000E+00
  0.00000000E+00  0.00000000E+00  0.00000000E+00
  0.00000000E+00  0.00000000E+00  0.00000000E+00
  0.00000000E+00  0.00000000E+00  0.00000000E+00
  0.00000000E+00  0.00000000E+00  0.00000000E+00
  0.00000000E+00  0.00000000E+00  0.00000000E+00
  0.00000000E+00  0.00000000E+00  0.00000000E+00
  0.00000000E+00  0.00000000E+00  0.00000000E+00
  0.00000000E+00  0.00000000E+00  0.00000000E+00
  0.00000000E+00  0.00000000E+00  0.00000000E+00
  0.00000000E+00  0.00000000E+00  0.00000000E+00
  0.00000000E+00  0.00000000E+00  0.00000000E+00
  0.00000000E+00  0.00000000E+00  0.00000000E+00
  0.00000000E+00  0.00000000E+00  0.00000000E+00
  0.00000000E+00  0.00000000E+00  0.00000000E+00
  0.00000000E+00  0.00000000E+00  0.00000000E+00
  0.00000000E+00  0.00000000E+00  0.00000000E+00
  0.00000000E+00  0.00000000E+00  0.00000000E+00
  0.00000000E+00  0.00000000E+00  0.00000000E+00
  0.00000000E+00  0.00000000E+00  0.00000000E+00
  0.00000000E+00  0.00000000E+00  0.00000000E+00
  0.00000000E+00  0.00000000E+00  0.00000000E+00
  0.00000000E+00  0.00000000E+00  0.00000000E+00
  0.00000000E+00  0.00000000E+00  0.00000000E+00
