Ce12 C1 O25                             
   1.00000000000000     
     7.7074639999999999    0.0000000000000000    0.0000000000000000
    -3.8537319999999999    6.6748599999999998    0.0000000000000000
     0.0000000000000000    0.0000000000000000   28.3190309999999990
   Ce   O    C    O 
    12    24     1     1
Selective dynamics
Direct
  0.1676905333425472  0.3345178348030566  0.3860378454550710   T   T   T
  0.1676542464165225  0.8344137055468811  0.3859271498111154   T   T   T
  0.6676420384533708  0.3344121500353603  0.3859365338736325   T   T   T
  0.6676236669991614  0.8344243332132915  0.3859394782803257   T   T   T
  0.0010830447268504  0.0004880926955244  0.6109666454784570   T   T   T
  0.0012277557698034  0.5010209045227916  0.6110901844177791   T   T   T
  0.5013005651704736  0.0009642863215504  0.6110682191024980   T   T   T
  0.5013735769265443  0.5008778058614092  0.6109826313884793   T   T   T
  0.3343874459412180  0.1674923402872570  0.4984937638361097   T   T   T
  0.3343768995263525  0.6676559176674194  0.4985111644783127   T   T   T
  0.8342991960692578  0.1675437716859700  0.4985128290527842   T   T   T
  0.8342844047856390  0.6674132299934940  0.4984539814228984   T   T   T
  0.1675149922805266  0.3340019352183202  0.4697336960734200   T   T   T
  0.1680290142892578  0.8346156316330060  0.4695027605114879   T   T   T
  0.6673822389839561  0.3336985666561059  0.4695598822208253   T   T   T
  0.6676674013024574  0.8346251437359514  0.4694948374294407   T   T   T
  0.0008916430904508  0.0009242472876914  0.3577592872498470   T   T   T
  0.0011454871375785  0.5014039802759581  0.3576868070364301   T   T   T
  0.5009152621514327  0.0009917969634517  0.3576305871799168   T   T   T
  0.5010993061450012  0.5013880290050825  0.3576934592069770   T   T   T
  0.3348458865749921  0.1681262711370231  0.5822507439384758   T   T   T
  0.3341549489035062  0.6668326126877816  0.5823845176408283   T   T   T
  0.8348722504536341  0.1681051135481037  0.5823109570934473   T   T   T
  0.8340811369696587  0.6667609025465361  0.5824940760099374   T   T   T
  0.0006444029495128  0.0000598873862548  0.5274664665608161   T   T   T
  0.0009593923790855  0.5013436427660277  0.5273672643133548   T   T   T
  0.5010024132325872  0.0006300023122497  0.5275046908836508   T   T   T
  0.5016219139833796  0.5013518532605495  0.5273229484655935   T   T   T
  0.3343976551271136  0.1679962033975397  0.4145945099154733   T   T   T
  0.3341782159624971  0.6674630764989703  0.4146749330421425   T   T   T
  0.8345210865167628  0.1680196461724945  0.4145963560896170   T   T   T
  0.8341812820542492  0.6674282802229566  0.4146989386319133   T   T   T
  0.1676847388719865  0.3333136757703521  0.6393670626174240   T   T   T
  0.1680266030661643  0.8346121354251744  0.6390567752404422   T   T   T
  0.6676048015351295  0.3335448603332289  0.6394814938314625   T   T   T
  0.6679252512931569  0.8344048496839777  0.6391675759883548   T   T   T
  0.1332290493739514  0.3694367121176370  0.7467854831290794   T   T   T
  0.0762692512442274  0.2043845713235687  0.7552834631021769   T   T   T
 
  0.00000000E+00  0.00000000E+00  0.00000000E+00
  0.00000000E+00  0.00000000E+00  0.00000000E+00
  0.00000000E+00  0.00000000E+00  0.00000000E+00
  0.00000000E+00  0.00000000E+00  0.00000000E+00
  0.00000000E+00  0.00000000E+00  0.00000000E+00
  0.00000000E+00  0.00000000E+00  0.00000000E+00
  0.00000000E+00  0.00000000E+00  0.00000000E+00
  0.00000000E+00  0.00000000E+00  0.00000000E+00
  0.00000000E+00  0.00000000E+00  0.00000000E+00
  0.00000000E+00  0.00000000E+00  0.00000000E+00
  0.00000000E+00  0.00000000E+00  0.00000000E+00
  0.00000000E+00  0.00000000E+00  0.00000000E+00
  0.00000000E+00  0.00000000E+00  0.00000000E+00
  0.00000000E+00  0.00000000E+00  0.00000000E+00
  0.00000000E+00  0.00000000E+00  0.00000000E+00
  0.00000000E+00  0.00000000E+00  0.00000000E+00
  0.00000000E+00  0.00000000E+00  0.00000000E+00
  0.00000000E+00  0.00000000E+00  0.00000000E+00
  0.00000000E+00  0.00000000E+00  0.00000000E+00
  0.00000000E+00  0.00000000E+00  0.00000000E+00
  0.00000000E+00  0.00000000E+00  0.00000000E+00
  0.00000000E+00  0.00000000E+00  0.00000000E+00
  0.00000000E+00  0.00000000E+00  0.00000000E+00
  0.00000000E+00  0.00000000E+00  0.00000000E+00
  0.00000000E+00  0.00000000E+00  0.00000000E+00
  0.00000000E+00  0.00000000E+00  0.00000000E+00
  0.00000000E+00  0.00000000E+00  0.00000000E+00
  0.00000000E+00  0.00000000E+00  0.00000000E+00
  0.00000000E+00  0.00000000E+00  0.00000000E+00
  0.00000000E+00  0.00000000E+00  0.00000000E+00
  0.00000000E+00  0.00000000E+00  0.00000000E+00
  0.00000000E+00  0.00000000E+00  0.00000000E+00
  0.00000000E+00  0.00000000E+00  0.00000000E+00
  0.00000000E+00  0.00000000E+00  0.00000000E+00
  0.00000000E+00  0.00000000E+00  0.00000000E+00
  0.00000000E+00  0.00000000E+00  0.00000000E+00
  0.00000000E+00  0.00000000E+00  0.00000000E+00
  0.00000000E+00  0.00000000E+00  0.00000000E+00
