Ce12 C1 O25                             
   1.00000000000000     
     7.7074639999999999    0.0000000000000000    0.0000000000000000
    -3.8537319999999999    6.6748599999999998    0.0000000000000000
     0.0000000000000000    0.0000000000000000   28.3190309999999990
   Ce   O    C    O 
    12    24     1     1
Selective dynamics
Direct
  0.1675185824688485  0.3348408589286198  0.3869594053857475   T   T   T
  0.1673627198282679  0.8346511275034164  0.3870369245594474   T   T   T
  0.6673914961107666  0.3348524983967250  0.3869755821527510   T   T   T
  0.6673408691064266  0.8345795587388615  0.3870914172488837   T   T   T
  0.0014713799817644  0.0018315495723808  0.6119098429751602   T   T   T
  0.0002001938097811  0.5008298768634351  0.6129281440144124   T   T   T
  0.5013253149064817  0.0019441460970314  0.6118664675621992   T   T   T
  0.5011091774569610  0.5012145120272813  0.6119124786476884   T   T   T
  0.3342776328799431  0.1680320852998703  0.4994218190991939   T   T   T
  0.3336178504569634  0.6677468079657028  0.4995996963297868   T   T   T
  0.8343815307076761  0.1683757787436797  0.4994974048864453   T   T   T
  0.8344790181038829  0.6677599034618537  0.4995611307840333   T   T   T
  0.1676253905348813  0.3340001487478520  0.4706938148552440   T   T   T
  0.1679953905836646  0.8355480200145963  0.4706486347314983   T   T   T
  0.6666548180067372  0.3339518753174057  0.4706853668196980   T   T   T
  0.6677125671627386  0.8350673754342418  0.4705161819181993   T   T   T
  0.0007074481504812  0.0011150638292445  0.3588105541849507   T   T   T
  0.0010466981822413  0.5019289482599063  0.3586696117280568   T   T   T
  0.5004992410267126  0.0010315405638931  0.3587720964267562   T   T   T
  0.5009044751943947  0.5019094864672342  0.3586255357628608   T   T   T
  0.3346960717073029  0.1689929535246312  0.5827992351948872   T   T   T
  0.3321283483416415  0.6665970796244748  0.5838448323128714   T   T   T
  0.8355727217023622  0.1697732077518474  0.5836356813635323   T   T   T
  0.8352132397998895  0.6672538402756397  0.5838513472631139   T   T   T
 -0.0000125016901210  0.0006827378333531  0.5285464532590666   T   T   T
  0.0007729467997176  0.5013342726045344  0.5280489832450913   T   T   T
  0.5012730198916178  0.0005678096576624  0.5285803682494753   T   T   T
  0.5016085320383932  0.5027686921996057  0.5284893205791901   T   T   T
  0.3344207496225631  0.1685425902513299  0.4155620162541261   T   T   T
  0.3338322507898844  0.6676314118536110  0.4158380674619827   T   T   T
  0.8343301281577911  0.1686477826913619  0.4156220448284162   T   T   T
  0.8339049966641952  0.6675121011324967  0.4157922633731544   T   T   T
  0.1696381708922264  0.3324816632813594  0.6407534991969196   T   T   T
  0.1709878175403981  0.8407637643514151  0.6405741485038990   T   T   T
  0.6645892133879658  0.3328168766176951  0.6404490463191098   T   T   T
  0.6675404436123933  0.8347616972212837  0.6404306814485161   T   T   T
  0.0544182589489900  0.5415200627098103  0.7122707679508368   T   T   T
  0.1081197971331796  0.5772302941846579  0.7505191331227968   T   T   T
 
  0.00000000E+00  0.00000000E+00  0.00000000E+00
  0.00000000E+00  0.00000000E+00  0.00000000E+00
  0.00000000E+00  0.00000000E+00  0.00000000E+00
  0.00000000E+00  0.00000000E+00  0.00000000E+00
  0.00000000E+00  0.00000000E+00  0.00000000E+00
  0.00000000E+00  0.00000000E+00  0.00000000E+00
  0.00000000E+00  0.00000000E+00  0.00000000E+00
  0.00000000E+00  0.00000000E+00  0.00000000E+00
  0.00000000E+00  0.00000000E+00  0.00000000E+00
  0.00000000E+00  0.00000000E+00  0.00000000E+00
  0.00000000E+00  0.00000000E+00  0.00000000E+00
  0.00000000E+00  0.00000000E+00  0.00000000E+00
  0.00000000E+00  0.00000000E+00  0.00000000E+00
  0.00000000E+00  0.00000000E+00  0.00000000E+00
  0.00000000E+00  0.00000000E+00  0.00000000E+00
  0.00000000E+00  0.00000000E+00  0.00000000E+00
  0.00000000E+00  0.00000000E+00  0.00000000E+00
  0.00000000E+00  0.00000000E+00  0.00000000E+00
  0.00000000E+00  0.00000000E+00  0.00000000E+00
  0.00000000E+00  0.00000000E+00  0.00000000E+00
  0.00000000E+00  0.00000000E+00  0.00000000E+00
  0.00000000E+00  0.00000000E+00  0.00000000E+00
  0.00000000E+00  0.00000000E+00  0.00000000E+00
  0.00000000E+00  0.00000000E+00  0.00000000E+00
  0.00000000E+00  0.00000000E+00  0.00000000E+00
  0.00000000E+00  0.00000000E+00  0.00000000E+00
  0.00000000E+00  0.00000000E+00  0.00000000E+00
  0.00000000E+00  0.00000000E+00  0.00000000E+00
  0.00000000E+00  0.00000000E+00  0.00000000E+00
  0.00000000E+00  0.00000000E+00  0.00000000E+00
  0.00000000E+00  0.00000000E+00  0.00000000E+00
  0.00000000E+00  0.00000000E+00  0.00000000E+00
  0.00000000E+00  0.00000000E+00  0.00000000E+00
  0.00000000E+00  0.00000000E+00  0.00000000E+00
  0.00000000E+00  0.00000000E+00  0.00000000E+00
  0.00000000E+00  0.00000000E+00  0.00000000E+00
  0.00000000E+00  0.00000000E+00  0.00000000E+00
  0.00000000E+00  0.00000000E+00  0.00000000E+00
