Ce12 C1 O25                             
   1.00000000000000     
     7.7074639999999999    0.0000000000000000    0.0000000000000000
    -3.8537319999999999    6.6748599999999998    0.0000000000000000
     0.0000000000000000    0.0000000000000000   28.3190309999999990
   Ce   O    C    O 
    12    24     1     1
Selective dynamics
Direct
  0.1664691123312818  0.3336689165326523  0.3867379326511197   T   T   T
  0.1664964539443648  0.8336960737894215  0.3867116065025695   T   T   T
  0.6664826865194794  0.3336497888407641  0.3867247178483788   T   T   T
  0.6664872443610588  0.8337164150725255  0.3867158025208935   T   T   T
  0.9991516633938057  0.0005228995832839  0.6115672741159855   T   T   T
  0.9998520188704311  0.5006995381752742  0.6116392713030873   T   T   T
  0.4998286981086952  0.0007060026992124  0.6117939272227216   T   T   T
  0.4999305058001317  0.5007861169331771  0.6115868620674191   T   T   T
  0.3331775048141610  0.1671284373953868  0.4992634063080473   T   T   T
  0.3331883374253653  0.6672345084004392  0.4992358810226060   T   T   T
  0.8330152178558663  0.1671471853056229  0.4992126030327371   T   T   T
  0.8330960309771238  0.6671123797400905  0.4991937034173839   T   T   T
  0.1666006550466597  0.3338356733234110  0.4703639100019230   T   T   T
  0.1666094100168957  0.8338803122018363  0.4703731410254061   T   T   T
  0.6663129028076119  0.3336298509012366  0.4703237369805060   T   T   T
  0.6663349562473064  0.8337908197259781  0.4703082839328813   T   T   T
  0.9998203193009146  0.0003977629504833  0.3584215786688535   T   T   T
  0.9997723437811282  0.5003923950329616  0.3584276375385419   T   T   T
  0.4997839798512159  0.0004147219767217  0.3584013898830040   T   T   T
  0.4997857276596661  0.5003711595311439  0.3584276763044447   T   T   T
  0.3326267319233600  0.1667320943649924  0.5831133818501134   T   T   T
  0.3331158833189489  0.6676275007677998  0.5829036305727151   T   T   T
  0.8332345007726139  0.1671840809759965  0.5830893301171889   T   T   T
  0.8334565116803682  0.6676852419318987  0.5829941038591113   T   T   T
  0.9995898140099659  0.0004840317007176  0.5281590075772664   T   T   T
  0.9995705136209786  0.5003721192171048  0.5281247075363428   T   T   T
  0.4999677864418892  0.0007544639114081  0.5282471249720184   T   T   T
  0.4999886861091863  0.5004635266848508  0.5281796775197630   T   T   T
  0.3330932638967410  0.1670122672174961  0.4154072916063020   T   T   T
  0.3330946708469375  0.6670709463992868  0.4153775976446678   T   T   T
  0.8331877668758908  0.1670904689293119  0.4153892442808328   T   T   T
  0.8331720478000811  0.6670665728005949  0.4154160821368468   T   T   T
  0.1672673793772141  0.3349182121203396  0.6397389953746090   T   T   T
  0.1661278126320417  0.8332507717969014  0.6400534525274727   T   T   T
  0.6666484654095494  0.3342692866712596  0.6398479412652291   T   T   T
  0.6660812319843160  0.8337712480546621  0.6397626314442523   T   T   T
  0.2329293526827466  0.0625111134602573  0.7389303942949790   T   T   T
  0.0709278115039992  0.0300670948835045  0.7376250630717843   T   T   T
 
  0.00000000E+00  0.00000000E+00  0.00000000E+00
  0.00000000E+00  0.00000000E+00  0.00000000E+00
  0.00000000E+00  0.00000000E+00  0.00000000E+00
  0.00000000E+00  0.00000000E+00  0.00000000E+00
  0.00000000E+00  0.00000000E+00  0.00000000E+00
  0.00000000E+00  0.00000000E+00  0.00000000E+00
  0.00000000E+00  0.00000000E+00  0.00000000E+00
  0.00000000E+00  0.00000000E+00  0.00000000E+00
  0.00000000E+00  0.00000000E+00  0.00000000E+00
  0.00000000E+00  0.00000000E+00  0.00000000E+00
  0.00000000E+00  0.00000000E+00  0.00000000E+00
  0.00000000E+00  0.00000000E+00  0.00000000E+00
  0.00000000E+00  0.00000000E+00  0.00000000E+00
  0.00000000E+00  0.00000000E+00  0.00000000E+00
  0.00000000E+00  0.00000000E+00  0.00000000E+00
  0.00000000E+00  0.00000000E+00  0.00000000E+00
  0.00000000E+00  0.00000000E+00  0.00000000E+00
  0.00000000E+00  0.00000000E+00  0.00000000E+00
  0.00000000E+00  0.00000000E+00  0.00000000E+00
  0.00000000E+00  0.00000000E+00  0.00000000E+00
  0.00000000E+00  0.00000000E+00  0.00000000E+00
  0.00000000E+00  0.00000000E+00  0.00000000E+00
  0.00000000E+00  0.00000000E+00  0.00000000E+00
  0.00000000E+00  0.00000000E+00  0.00000000E+00
  0.00000000E+00  0.00000000E+00  0.00000000E+00
  0.00000000E+00  0.00000000E+00  0.00000000E+00
  0.00000000E+00  0.00000000E+00  0.00000000E+00
  0.00000000E+00  0.00000000E+00  0.00000000E+00
  0.00000000E+00  0.00000000E+00  0.00000000E+00
  0.00000000E+00  0.00000000E+00  0.00000000E+00
  0.00000000E+00  0.00000000E+00  0.00000000E+00
  0.00000000E+00  0.00000000E+00  0.00000000E+00
  0.00000000E+00  0.00000000E+00  0.00000000E+00
  0.00000000E+00  0.00000000E+00  0.00000000E+00
  0.00000000E+00  0.00000000E+00  0.00000000E+00
  0.00000000E+00  0.00000000E+00  0.00000000E+00
  0.00000000E+00  0.00000000E+00  0.00000000E+00
  0.00000000E+00  0.00000000E+00  0.00000000E+00
