Ce12 C1 O25                             
   1.00000000000000     
     7.7074639999999999    0.0000000000000000    0.0000000000000000
    -3.8537319999999999    6.6748599999999998    0.0000000000000000
     0.0000000000000000    0.0000000000000000   28.3190309999999990
   Ce   O    C    O 
    12    24     1     1
Selective dynamics
Direct
  0.1681136694698967  0.3340563347349529  0.3864246737933336   T   T   T
  0.1680700314142635  0.8340345157071367  0.3862803316185320   T   T   T
  0.6680943080959029  0.3340568206894873  0.3863145580180180   T   T   T
  0.6680943080959029  0.8340364874064248  0.3863145580180180   T   T   T
  0.0023710624378202  0.0009636718479986  0.6115799705162193   T   T   T
  0.0023710624378202  0.5014073905898214  0.6115799705162193   T   T   T
  0.5026516839872807  0.0013258419936401  0.6115141312974945   T   T   T
  0.5024631748514966  0.5012315874257474  0.6114665309397045   T   T   T
  0.3351931937846704  0.1675992614913817  0.4988611943205100   T   T   T
  0.3351931937846704  0.6675949322932788  0.4988611943205100   T   T   T
  0.8353679407925485  0.1676844703962694  0.4988885818738661   T   T   T
  0.8350906199611308  0.6675458099805605  0.4988585695596215   T   T   T
  0.1686164060013592  0.3343077030006844  0.4701371759054218   T   T   T
  0.1686929163488509  0.8343459581744299  0.4699693772093492   T   T   T
  0.6682124405276108  0.3341472259237186  0.4698721490886859   T   T   T
  0.6682124405276108  0.8340642146039019  0.4698721490886859   T   T   T
  0.0013420995744738  0.0004972561511874  0.3580202512443256   T   T   T
  0.0013420995744737  0.5008448434232863  0.3580202512443256   T   T   T
  0.5014438448058839  0.0007219224029418  0.3579319433599799   T   T   T
  0.5016068991131027  0.5008034495565511  0.3580313307765002   T   T   T
  0.3353983421049642  0.1675780507945629  0.5828488033073322   T   T   T
  0.3353983421049642  0.6678212913103923  0.5828488033073322   T   T   T
  0.8361722850423754  0.1680866425211828  0.5829777736617376   T   T   T
  0.8358208086500321  0.6679109043250111  0.5829302561438111   T   T   T
  0.0017670957980305  0.0006619370498192  0.5278245519229278   T   T   T
  0.0017670957980305  0.5011051587482114  0.5278245519229278   T   T   T
  0.5024978634559094  0.0012489317279547  0.5278059336704042   T   T   T
  0.5022072467405111  0.5011036233702552  0.5279166756260036   T   T   T
  0.3346492197715764  0.1674698775965326  0.4149764217725486   T   T   T
  0.3346492197715764  0.6671803421750343  0.4149764217725486   T   T   T
  0.8351068475679406  0.1675539237839654  0.4149498063543499   T   T   T
  0.8349186588304440  0.6674598294152173  0.4149749395791164   T   T   T
  0.1698302936578852  0.3349146468289473  0.6400654432496269   T   T   T
  0.1690780674895238  0.8345385337447669  0.6400771046265629   T   T   T
  0.6687972417660013  0.3348871379715511  0.6397741747701384   T   T   T
  0.6687972417660013  0.8339091037944593  0.6397741747701384   T   T   T
  0.0795978973794687  0.2897989486897309  0.7780894111247816   T   T   T
 -0.0378851632819991  0.2310574183589970  0.7486818597083900   T   T   T
 
  0.00000000E+00  0.00000000E+00  0.00000000E+00
  0.00000000E+00  0.00000000E+00  0.00000000E+00
  0.00000000E+00  0.00000000E+00  0.00000000E+00
  0.00000000E+00  0.00000000E+00  0.00000000E+00
  0.00000000E+00  0.00000000E+00  0.00000000E+00
  0.00000000E+00  0.00000000E+00  0.00000000E+00
  0.00000000E+00  0.00000000E+00  0.00000000E+00
  0.00000000E+00  0.00000000E+00  0.00000000E+00
  0.00000000E+00  0.00000000E+00  0.00000000E+00
  0.00000000E+00  0.00000000E+00  0.00000000E+00
  0.00000000E+00  0.00000000E+00  0.00000000E+00
  0.00000000E+00  0.00000000E+00  0.00000000E+00
  0.00000000E+00  0.00000000E+00  0.00000000E+00
  0.00000000E+00  0.00000000E+00  0.00000000E+00
  0.00000000E+00  0.00000000E+00  0.00000000E+00
  0.00000000E+00  0.00000000E+00  0.00000000E+00
  0.00000000E+00  0.00000000E+00  0.00000000E+00
  0.00000000E+00  0.00000000E+00  0.00000000E+00
  0.00000000E+00  0.00000000E+00  0.00000000E+00
  0.00000000E+00  0.00000000E+00  0.00000000E+00
  0.00000000E+00  0.00000000E+00  0.00000000E+00
  0.00000000E+00  0.00000000E+00  0.00000000E+00
  0.00000000E+00  0.00000000E+00  0.00000000E+00
  0.00000000E+00  0.00000000E+00  0.00000000E+00
  0.00000000E+00  0.00000000E+00  0.00000000E+00
  0.00000000E+00  0.00000000E+00  0.00000000E+00
  0.00000000E+00  0.00000000E+00  0.00000000E+00
  0.00000000E+00  0.00000000E+00  0.00000000E+00
  0.00000000E+00  0.00000000E+00  0.00000000E+00
  0.00000000E+00  0.00000000E+00  0.00000000E+00
  0.00000000E+00  0.00000000E+00  0.00000000E+00
  0.00000000E+00  0.00000000E+00  0.00000000E+00
  0.00000000E+00  0.00000000E+00  0.00000000E+00
  0.00000000E+00  0.00000000E+00  0.00000000E+00
  0.00000000E+00  0.00000000E+00  0.00000000E+00
  0.00000000E+00  0.00000000E+00  0.00000000E+00
  0.00000000E+00  0.00000000E+00  0.00000000E+00
  0.00000000E+00  0.00000000E+00  0.00000000E+00
