Ce12 C1 O25                             
   1.00000000000000     
     7.7074639999999999    0.0000000000000000    0.0000000000000000
    -3.8537319999999999    6.6748599999999998    0.0000000000000000
     0.0000000000000000    0.0000000000000000   28.3190309999999990
   Ce   O    C    O 
    12    24     1     1
Selective dynamics
Direct
  0.1670664314557446  0.3337774232222522  0.3867297726218309   T   T   T
  0.1671136026572206  0.8340109908154925  0.3867374163889615   T   T   T
  0.6670306289077770  0.3338334727807886  0.3867942627688949   T   T   T
  0.6671731380079370  0.8339687878292924  0.3867486052338596   T   T   T
  0.0015169054107465  0.0015604568672210  0.6123298094304441   T   T   T
  0.0015723637135024  0.5013690959062450  0.6118002419764557   T   T   T
  0.5021315346618827  0.0013433763916208  0.6115648625224063   T   T   T
  0.5017863587819352  0.5018320204165857  0.6116601832277774   T   T   T
  0.3338830761381982  0.1675031257283004  0.4993601704602952   T   T   T
  0.3341415259501966  0.6675919574775548  0.4992319216816931   T   T   T
  0.8344464832449989  0.1676578089267648  0.4993259157326395   T   T   T
  0.8345118486414184  0.6679047631526632  0.4993566330294936   T   T   T
  0.1676347858480432  0.3342434292639841  0.4704530316176905   T   T   T
  0.1675664750144402  0.8343028444426889  0.4704444271498420   T   T   T
  0.6672940050725796  0.3341388075941045  0.4703771623977121   T   T   T
  0.6672698755328698  0.8341642994863901  0.4703861772170824   T   T   T
  0.0005094743944250  0.0006960494538493  0.3584038919481170   T   T   T
  0.0003175081296751  0.5004128911989226  0.3584983634837203   T   T   T
  0.5004418274492104  0.0007535042948860  0.3584601871116751   T   T   T
  0.5003531871371527  0.5003511553837552  0.3584815540432211   T   T   T
  0.3338231465185122  0.1671744915646521  0.5832295277630998   T   T   T
  0.3353263052023574  0.6683905754596108  0.5827989933988238   T   T   T
  0.8349647422162486  0.1674305886713520  0.5832377848200015   T   T   T
  0.8353835616445792  0.6692651557637138  0.5830850810011309   T   T   T
  0.0009129320455847  0.0011418394261621  0.5284357375285463   T   T   T
  0.0008407548050069  0.5008475636744441  0.5282886212645688   T   T   T
  0.5012415967243340  0.0014230279402697  0.5283475859262544   T   T   T
  0.5012849020037090  0.5009333274462419  0.5282439753435071   T   T   T
  0.3335801849940827  0.1671367219337046  0.4155575623608548   T   T   T
  0.3339364155387837  0.6673920292471013  0.4154605936698060   T   T   T
  0.8339147786087716  0.1670805013159913  0.4155382855802294   T   T   T
  0.8339587025266687  0.6676603442987884  0.4154871594850887   T   T   T
  0.1691051174773284  0.3359291063485105  0.6400162380719903   T   T   T
  0.1687782880394583  0.8333326235078989  0.6400306558132174   T   T   T
  0.6686041176868742  0.3354815085134932  0.6395599387743200   T   T   T
  0.6679553729461896  0.8349482017652571  0.6400302289130464   T   T   T
  0.2543527455839609  0.0741120438160852  0.7310642683903998   T   T   T
  0.4119992992875982  0.1111260886733624  0.7422331718512987   T   T   T
 
  0.00000000E+00  0.00000000E+00  0.00000000E+00
  0.00000000E+00  0.00000000E+00  0.00000000E+00
  0.00000000E+00  0.00000000E+00  0.00000000E+00
  0.00000000E+00  0.00000000E+00  0.00000000E+00
  0.00000000E+00  0.00000000E+00  0.00000000E+00
  0.00000000E+00  0.00000000E+00  0.00000000E+00
  0.00000000E+00  0.00000000E+00  0.00000000E+00
  0.00000000E+00  0.00000000E+00  0.00000000E+00
  0.00000000E+00  0.00000000E+00  0.00000000E+00
  0.00000000E+00  0.00000000E+00  0.00000000E+00
  0.00000000E+00  0.00000000E+00  0.00000000E+00
  0.00000000E+00  0.00000000E+00  0.00000000E+00
  0.00000000E+00  0.00000000E+00  0.00000000E+00
  0.00000000E+00  0.00000000E+00  0.00000000E+00
  0.00000000E+00  0.00000000E+00  0.00000000E+00
  0.00000000E+00  0.00000000E+00  0.00000000E+00
  0.00000000E+00  0.00000000E+00  0.00000000E+00
  0.00000000E+00  0.00000000E+00  0.00000000E+00
  0.00000000E+00  0.00000000E+00  0.00000000E+00
  0.00000000E+00  0.00000000E+00  0.00000000E+00
  0.00000000E+00  0.00000000E+00  0.00000000E+00
  0.00000000E+00  0.00000000E+00  0.00000000E+00
  0.00000000E+00  0.00000000E+00  0.00000000E+00
  0.00000000E+00  0.00000000E+00  0.00000000E+00
  0.00000000E+00  0.00000000E+00  0.00000000E+00
  0.00000000E+00  0.00000000E+00  0.00000000E+00
  0.00000000E+00  0.00000000E+00  0.00000000E+00
  0.00000000E+00  0.00000000E+00  0.00000000E+00
  0.00000000E+00  0.00000000E+00  0.00000000E+00
  0.00000000E+00  0.00000000E+00  0.00000000E+00
  0.00000000E+00  0.00000000E+00  0.00000000E+00
  0.00000000E+00  0.00000000E+00  0.00000000E+00
  0.00000000E+00  0.00000000E+00  0.00000000E+00
  0.00000000E+00  0.00000000E+00  0.00000000E+00
  0.00000000E+00  0.00000000E+00  0.00000000E+00
  0.00000000E+00  0.00000000E+00  0.00000000E+00
  0.00000000E+00  0.00000000E+00  0.00000000E+00
  0.00000000E+00  0.00000000E+00  0.00000000E+00
