Ce12 C1 O25                             
   1.00000000000000     
     7.7074639999999999    0.0000000000000000    0.0000000000000000
    -3.8537319999999999    6.6748599999999998    0.0000000000000000
     0.0000000000000000    0.0000000000000000   28.3190309999999990
   Ce   O    C    O 
    12    24     1     1
Selective dynamics
Direct
  0.1659519773487356  0.3330693871862923  0.3866095674585951   T   T   T
  0.1660949396616451  0.8332278331165829  0.3865956132916600   T   T   T
  0.6659250694229029  0.3330144623627387  0.3866420990932337   T   T   T
  0.6659721168376389  0.8332128808893465  0.3866115118584389   T   T   T
 -0.0009203172151415  0.0001727546884394  0.6117545283035589   T   T   T
 -0.0009026283520042  0.5005603679441710  0.6114962102076623   T   T   T
  0.4991433983948544  0.0004045175676105  0.6115770149130262   T   T   T
  0.4994691462615320  0.5009726201452499  0.6113306526546269   T   T   T
  0.3324366239180203  0.1666199124897185  0.4991385747287335   T   T   T
  0.3325376396105971  0.6668290532807793  0.4990751770047796   T   T   T
  0.8325103404715011  0.1666038087414341  0.4991559832331451   T   T   T
  0.8325215443998027  0.6666916464676226  0.4991180049747251   T   T   T
  0.1658661158916341  0.3333450768678858  0.4702222754073528   T   T   T
  0.1662108296915345  0.8333547539278349  0.4701619240158945   T   T   T
  0.6657729639728359  0.3330900898479869  0.4701391285705154   T   T   T
  0.6656419403758492  0.8333896311698195  0.4701655810479517   T   T   T
 -0.0005967260748700 -0.0001559703798901  0.3583800291021212   T   T   T
 -0.0006519164344262  0.4997557575017477  0.3584224565314604   T   T   T
  0.4992701135904270 -0.0002278013027981  0.3583254974444465   T   T   T
  0.4991796037927243  0.4996857373227389  0.3583903239184292   T   T   T
  0.3320163409942062  0.1670299724002992  0.5829189517197046   T   T   T
  0.3329202024478438  0.6673633119154654  0.5826288260973707   T   T   T
  0.8326269760472818  0.1666634020065139  0.5828594752053256   T   T   T
  0.8322225966183420  0.6671367794406076  0.5828933672194503   T   T   T
 -0.0008849762437211 -0.0001793154182958  0.5279857638386342   T   T   T
 -0.0011462841103810  0.5000553903254742  0.5279176184187391   T   T   T
  0.4992763267803587  0.0006128827828774  0.5281007366816223   T   T   T
  0.4993075088721379  0.5000230389617546  0.5279911213098656   T   T   T
  0.3325682175348847  0.1663885171733920  0.4153789870874481   T   T   T
  0.3327173115585968  0.6666127054939548  0.4152903348631367   T   T   T
  0.8324759765400043  0.1663016331499652  0.4152978237452613   T   T   T
  0.8326816585025141  0.6666627685691854  0.4153081988559769   T   T   T
  0.1660276980541359  0.3351069204259283  0.6396731819774516   T   T   T
  0.1663420553808972  0.8334935539671013  0.6396240441862459   T   T   T
  0.6650943637194183  0.3332683509643609  0.6396725811448964   T   T   T
  0.6654812827356310  0.8338066795258670  0.6395883081442076   T   T   T
  0.2753291420808803  0.2796946796833342  0.7371505930753421   T   T   T
  0.3946118269211732  0.4429882087969000  0.7441979326689586   T   T   T
 
  0.00000000E+00  0.00000000E+00  0.00000000E+00
  0.00000000E+00  0.00000000E+00  0.00000000E+00
  0.00000000E+00  0.00000000E+00  0.00000000E+00
  0.00000000E+00  0.00000000E+00  0.00000000E+00
  0.00000000E+00  0.00000000E+00  0.00000000E+00
  0.00000000E+00  0.00000000E+00  0.00000000E+00
  0.00000000E+00  0.00000000E+00  0.00000000E+00
  0.00000000E+00  0.00000000E+00  0.00000000E+00
  0.00000000E+00  0.00000000E+00  0.00000000E+00
  0.00000000E+00  0.00000000E+00  0.00000000E+00
  0.00000000E+00  0.00000000E+00  0.00000000E+00
  0.00000000E+00  0.00000000E+00  0.00000000E+00
  0.00000000E+00  0.00000000E+00  0.00000000E+00
  0.00000000E+00  0.00000000E+00  0.00000000E+00
  0.00000000E+00  0.00000000E+00  0.00000000E+00
  0.00000000E+00  0.00000000E+00  0.00000000E+00
  0.00000000E+00  0.00000000E+00  0.00000000E+00
  0.00000000E+00  0.00000000E+00  0.00000000E+00
  0.00000000E+00  0.00000000E+00  0.00000000E+00
  0.00000000E+00  0.00000000E+00  0.00000000E+00
  0.00000000E+00  0.00000000E+00  0.00000000E+00
  0.00000000E+00  0.00000000E+00  0.00000000E+00
  0.00000000E+00  0.00000000E+00  0.00000000E+00
  0.00000000E+00  0.00000000E+00  0.00000000E+00
  0.00000000E+00  0.00000000E+00  0.00000000E+00
  0.00000000E+00  0.00000000E+00  0.00000000E+00
  0.00000000E+00  0.00000000E+00  0.00000000E+00
  0.00000000E+00  0.00000000E+00  0.00000000E+00
  0.00000000E+00  0.00000000E+00  0.00000000E+00
  0.00000000E+00  0.00000000E+00  0.00000000E+00
  0.00000000E+00  0.00000000E+00  0.00000000E+00
  0.00000000E+00  0.00000000E+00  0.00000000E+00
  0.00000000E+00  0.00000000E+00  0.00000000E+00
  0.00000000E+00  0.00000000E+00  0.00000000E+00
  0.00000000E+00  0.00000000E+00  0.00000000E+00
  0.00000000E+00  0.00000000E+00  0.00000000E+00
  0.00000000E+00  0.00000000E+00  0.00000000E+00
  0.00000000E+00  0.00000000E+00  0.00000000E+00
