Ce12 C1 O25                             
   1.00000000000000     
     7.7074639999999999    0.0000000000000000    0.0000000000000000
    -3.8537319999999999    6.6748599999999998    0.0000000000000000
     0.0000000000000000    0.0000000000000000   28.3190309999999990
   Ce   O    C    O 
    12    24     1     1
Selective dynamics
Direct
  0.1700719744061833  0.3331959161259205  0.3881185350633914   T   T   T
  0.1701370676249394  0.8330506747081854  0.3880445165884107   T   T   T
  0.6702721962947132  0.3332137434436844  0.3880320956979977   T   T   T
  0.6701167565179013  0.8331892137627223  0.3881967110450021   T   T   T
  0.0046833024456195 -0.0024918922291029  0.6129710821335447   T   T   T
  0.0032251729875319  0.4981537821063682  0.6141937395041177   T   T   T
  0.5042253683694133 -0.0023849935700609  0.6129546417019341   T   T   T
  0.5046345015104600  0.4971925395186806  0.6129611397038643   T   T   T
  0.3371898190833569  0.1652155282801261  0.5005766940794097   T   T   T
  0.3363458456763724  0.6647977266391234  0.5007867778539702   T   T   T
  0.8373416946027544  0.1657877099785063  0.5007801831135554   T   T   T
  0.8371648437080110  0.6651133779507415  0.5006794801653814   T   T   T
  0.1706623685276144  0.3319013882173983  0.4718012857089064   T   T   T
  0.1707510854318132  0.8331346456399652  0.4717486054123057   T   T   T
  0.6694055737995415  0.3317932202421164  0.4717253503578084   T   T   T
  0.6704018062235457  0.8322598014421532  0.4716163645842730   T   T   T
  0.0030673013113363 -0.0002509548554818  0.3599404386881702   T   T   T
  0.0035113842573775  0.4999318606631041  0.3597818496415609   T   T   T
  0.5036659020137427 -0.0001776067732645  0.3598032671513154   T   T   T
  0.5036949167900795  0.5003772214470070  0.3599619112408601   T   T   T
  0.3381791338875331  0.1642903498740981  0.5838690157451683   T   T   T
  0.3347312364119458  0.6625043733146644  0.5850692369994452   T   T   T
  0.8388766030571512  0.1665247424620601  0.5850295936325298   T   T   T
  0.8381800523130742  0.6634583470564739  0.5847648187597619   T   T   T
  0.0029081626066021 -0.0019628494428643  0.5296333083165591   T   T   T
  0.0034945338393115  0.4984377691892884  0.5291680434460962   T   T   T
  0.5046299826858073 -0.0028182103158512  0.5296177953634447   T   T   T
  0.5041967869686542  0.4994387121234614  0.5296112545210971   T   T   T
  0.3369015855042041  0.1663193774714087  0.4165990036942819   T   T   T
  0.3361596147490253  0.6659872764656105  0.4168501064288678   T   T   T
  0.8371942899511650  0.1670392346076340  0.4168498233434297   T   T   T
  0.8372284544452460  0.6660070830047465  0.4167862122826226   T   T   T
  0.1742891219444531  0.3267882440167433  0.6419288461689278   T   T   T
  0.1726209991373677  0.8348671676030583  0.6414182718568238   T   T   T
  0.6682754208510240  0.3294271074805239  0.6415701659489566   T   T   T
  0.6705728908860368  0.8301232933981285  0.6413722493777254   T   T   T
  0.0683114382003763  0.4796115858778229  0.7138168749463522   T   T   T
  0.1260148109787078  0.4598414930750933  0.7494867097321298   T   T   T
 
  0.00000000E+00  0.00000000E+00  0.00000000E+00
  0.00000000E+00  0.00000000E+00  0.00000000E+00
  0.00000000E+00  0.00000000E+00  0.00000000E+00
  0.00000000E+00  0.00000000E+00  0.00000000E+00
  0.00000000E+00  0.00000000E+00  0.00000000E+00
  0.00000000E+00  0.00000000E+00  0.00000000E+00
  0.00000000E+00  0.00000000E+00  0.00000000E+00
  0.00000000E+00  0.00000000E+00  0.00000000E+00
  0.00000000E+00  0.00000000E+00  0.00000000E+00
  0.00000000E+00  0.00000000E+00  0.00000000E+00
  0.00000000E+00  0.00000000E+00  0.00000000E+00
  0.00000000E+00  0.00000000E+00  0.00000000E+00
  0.00000000E+00  0.00000000E+00  0.00000000E+00
  0.00000000E+00  0.00000000E+00  0.00000000E+00
  0.00000000E+00  0.00000000E+00  0.00000000E+00
  0.00000000E+00  0.00000000E+00  0.00000000E+00
  0.00000000E+00  0.00000000E+00  0.00000000E+00
  0.00000000E+00  0.00000000E+00  0.00000000E+00
  0.00000000E+00  0.00000000E+00  0.00000000E+00
  0.00000000E+00  0.00000000E+00  0.00000000E+00
  0.00000000E+00  0.00000000E+00  0.00000000E+00
  0.00000000E+00  0.00000000E+00  0.00000000E+00
  0.00000000E+00  0.00000000E+00  0.00000000E+00
  0.00000000E+00  0.00000000E+00  0.00000000E+00
  0.00000000E+00  0.00000000E+00  0.00000000E+00
  0.00000000E+00  0.00000000E+00  0.00000000E+00
  0.00000000E+00  0.00000000E+00  0.00000000E+00
  0.00000000E+00  0.00000000E+00  0.00000000E+00
  0.00000000E+00  0.00000000E+00  0.00000000E+00
  0.00000000E+00  0.00000000E+00  0.00000000E+00
  0.00000000E+00  0.00000000E+00  0.00000000E+00
  0.00000000E+00  0.00000000E+00  0.00000000E+00
  0.00000000E+00  0.00000000E+00  0.00000000E+00
  0.00000000E+00  0.00000000E+00  0.00000000E+00
  0.00000000E+00  0.00000000E+00  0.00000000E+00
  0.00000000E+00  0.00000000E+00  0.00000000E+00
  0.00000000E+00  0.00000000E+00  0.00000000E+00
  0.00000000E+00  0.00000000E+00  0.00000000E+00
