Ce12 C1 O25                             
   1.00000000000000     
     7.7074639999999999    0.0000000000000000    0.0000000000000000
    -3.8537319999999999    6.6748599999999998    0.0000000000000000
     0.0000000000000000    0.0000000000000000   28.3190309999999990
   Ce   O    C    O 
    12    24     1     1
Selective dynamics
Direct
  0.1670029854513908  0.3340781083538558  0.3864804475013718   T   T   T
  0.1669616819344054  0.8340107869052317  0.3864892087092567   T   T   T
  0.6669210298302650  0.3340240698716815  0.3865056195810361   T   T   T
  0.6668563178202291  0.8339544395105308  0.3864435099099238   T   T   T
  0.0007154703102284  0.0020411027601832  0.6114952012225383   T   T   T
  0.0004496216194328  0.5017271164505664  0.6114202813249042   T   T   T
  0.5007101034849273  0.0019356480707382  0.6114682245646016   T   T   T
  0.5009301978679424  0.5023426501132273  0.6112591158433072   T   T   T
  0.3337930803341810  0.1680446187459567  0.4989790100616542   T   T   T
  0.3337257152087223  0.6680579427694275  0.4989660835321056   T   T   T
  0.8338396220076471  0.1680264128102590  0.4989649836789430   T   T   T
  0.8337912439172579  0.6681153405345539  0.4989569461229664   T   T   T
  0.1670941320473467  0.3344468747711773  0.4700644996103746   T   T   T
  0.1670631311006063  0.8347092526271572  0.4701046556803423   T   T   T
  0.6669907535928394  0.3345603364002649  0.4701270514358776   T   T   T
  0.6671877686216462  0.8345899575937499  0.4699894477453792   T   T   T
  0.0003377457005910  0.0005282505882838  0.3582572865452301   T   T   T
  0.0004636793234956  0.5007975728665075  0.3582327668001820   T   T   T
  0.5000413214122534  0.0003675708888709  0.3582225026882383   T   T   T
  0.5001490286486163  0.5006626830534113  0.3581151136612908   T   T   T
  0.3342744859601213  0.1689107470519089  0.5827241983631422   T   T   T
  0.3337570749846620  0.6681388296153650  0.5827938401700598   T   T   T
  0.8341428002923054  0.1688960791942279  0.5827687372925476   T   T   T
  0.8336235030077245  0.6681898418340958  0.5827467430538212   T   T   T
  0.0003855908249331  0.0014868000463231  0.5279338190559739   T   T   T
  0.0005090919388601  0.5015653163373289  0.5278745601482085   T   T   T
  0.5006544387798656  0.0013359962224105  0.5279192350990481   T   T   T
  0.5005414895506411  0.5018743256828447  0.5278404372914454   T   T   T
  0.3338878344500872  0.1676673650698467  0.4151480209295539   T   T   T
  0.3336340370735129  0.6674352220189181  0.4151884654598826   T   T   T
  0.8335560527998916  0.1675914304234297  0.4151245467387806   T   T   T
  0.8334654511965993  0.6672367291325602  0.4151371325479978   T   T   T
  0.1670356430427218  0.3349854963196079  0.6398117812470572   T   T   T
  0.1671234104511715  0.8351158546733485  0.6395438295734845   T   T   T
  0.6672761337668173  0.3352905964191230  0.6398013423108245   T   T   T
  0.6677000562068389  0.8360750218574166  0.6393726652856274   T   T   T
  0.3797989709388582  0.3651458777222960  0.7456365136760790   T   T   T
  0.4669323045003662  0.5349057346933100  0.7398821755369416   T   T   T
 
  0.00000000E+00  0.00000000E+00  0.00000000E+00
  0.00000000E+00  0.00000000E+00  0.00000000E+00
  0.00000000E+00  0.00000000E+00  0.00000000E+00
  0.00000000E+00  0.00000000E+00  0.00000000E+00
  0.00000000E+00  0.00000000E+00  0.00000000E+00
  0.00000000E+00  0.00000000E+00  0.00000000E+00
  0.00000000E+00  0.00000000E+00  0.00000000E+00
  0.00000000E+00  0.00000000E+00  0.00000000E+00
  0.00000000E+00  0.00000000E+00  0.00000000E+00
  0.00000000E+00  0.00000000E+00  0.00000000E+00
  0.00000000E+00  0.00000000E+00  0.00000000E+00
  0.00000000E+00  0.00000000E+00  0.00000000E+00
  0.00000000E+00  0.00000000E+00  0.00000000E+00
  0.00000000E+00  0.00000000E+00  0.00000000E+00
  0.00000000E+00  0.00000000E+00  0.00000000E+00
  0.00000000E+00  0.00000000E+00  0.00000000E+00
  0.00000000E+00  0.00000000E+00  0.00000000E+00
  0.00000000E+00  0.00000000E+00  0.00000000E+00
  0.00000000E+00  0.00000000E+00  0.00000000E+00
  0.00000000E+00  0.00000000E+00  0.00000000E+00
  0.00000000E+00  0.00000000E+00  0.00000000E+00
  0.00000000E+00  0.00000000E+00  0.00000000E+00
  0.00000000E+00  0.00000000E+00  0.00000000E+00
  0.00000000E+00  0.00000000E+00  0.00000000E+00
  0.00000000E+00  0.00000000E+00  0.00000000E+00
  0.00000000E+00  0.00000000E+00  0.00000000E+00
  0.00000000E+00  0.00000000E+00  0.00000000E+00
  0.00000000E+00  0.00000000E+00  0.00000000E+00
  0.00000000E+00  0.00000000E+00  0.00000000E+00
  0.00000000E+00  0.00000000E+00  0.00000000E+00
  0.00000000E+00  0.00000000E+00  0.00000000E+00
  0.00000000E+00  0.00000000E+00  0.00000000E+00
  0.00000000E+00  0.00000000E+00  0.00000000E+00
  0.00000000E+00  0.00000000E+00  0.00000000E+00
  0.00000000E+00  0.00000000E+00  0.00000000E+00
  0.00000000E+00  0.00000000E+00  0.00000000E+00
  0.00000000E+00  0.00000000E+00  0.00000000E+00
  0.00000000E+00  0.00000000E+00  0.00000000E+00
