Ce12 C1 O25                             
   1.00000000000000     
     7.7074639999999999    0.0000000000000000    0.0000000000000000
    -3.8537319999999999    6.6748599999999998    0.0000000000000000
     0.0000000000000000    0.0000000000000000   28.3190309999999990
   Ce   O    C    O 
    12    24     1     1
Selective dynamics
Direct
  0.1677679732254071  0.3353392222140928  0.3868514537631915   T   T   T
  0.1676981692298490  0.8353357357938376  0.3868281350959562   T   T   T
  0.6678304952669543  0.3354679203780030  0.3868460950715843   T   T   T
  0.6678392659740855  0.8353293931413417  0.3868258182986015   T   T   T
  0.0008100536532952  0.0016879300084463  0.6122328727987754   T   T   T
  0.0011531091355996  0.5022867863057185  0.6118813194341947   T   T   T
  0.5010330015395744  0.0021188557465483  0.6120027589072234   T   T   T
  0.5009886927109852  0.5022183434059038  0.6118864488834519   T   T   T
  0.3342337229134442  0.1685205042419793  0.4994472220974588   T   T   T
  0.3343925539221810  0.6687452252724080  0.4993799055831070   T   T   T
  0.8343701033348133  0.1685261619742008  0.4994477958607996   T   T   T
  0.8343238963979172  0.6686160849752825  0.4994237067667965   T   T   T
  0.1676010228333195  0.3351012446118091  0.4705746777325062   T   T   T
  0.1677164568769380  0.8353169864608220  0.4704552275093306   T   T   T
  0.6676544137081160  0.3352444594813618  0.4704254567011997   T   T   T
  0.6676969524173683  0.8352940447952028  0.4704541522898574   T   T   T
  0.0010175545904133  0.0017871852504373  0.3585009578654066   T   T   T
  0.0011257031282472  0.5022656126544841  0.3585074497400517   T   T   T
  0.5011250582926430  0.0020305695403446  0.3586791478002636   T   T   T
  0.5013479195357828  0.5022481670301153  0.3585003718595768   T   T   T
  0.3339475243539135  0.1680383255133797  0.5834158250695104   T   T   T
  0.3346692252736301  0.6698046685623085  0.5831053570946974   T   T   T
  0.8342891549975040  0.1682611760391670  0.5834424962941654   T   T   T
  0.8344300095520307  0.6687864339590921  0.5833450919113174   T   T   T
  0.0008155562119728  0.0016359753101008  0.5284614330541552   T   T   T
  0.0007052377733171  0.5017600769453529  0.5283645291613839   T   T   T
  0.5013815760550540  0.0025673905666818  0.5282744763500490   T   T   T
  0.5010064301588996  0.5017767091011823  0.5283915647943423   T   T   T
  0.3342818742169875  0.1689126643044579  0.4154957460766505   T   T   T
  0.3342443871678368  0.6682820383400340  0.4155270061796469   T   T   T
  0.8347994309146289  0.1688954898300302  0.4154901696349370   T   T   T
  0.8344091345792053  0.6686537023748848  0.4155349487311695   T   T   T
  0.1689398924928676  0.3374831113994481  0.6399835550209814   T   T   T
  0.1674029165036333  0.8349911574306211  0.6404163632703667   T   T   T
  0.6676859662871446  0.3353205668262742  0.6403777500130310   T   T   T
  0.6671290928778235  0.8347624413473599  0.6402795004028923   T   T   T
  0.0606138469376309  0.1801153566780596  0.7709040647606068   T   T   T
  0.0126346249589911  0.0798062821892206  0.7381551481207580   T   T   T
 
  0.00000000E+00  0.00000000E+00  0.00000000E+00
  0.00000000E+00  0.00000000E+00  0.00000000E+00
  0.00000000E+00  0.00000000E+00  0.00000000E+00
  0.00000000E+00  0.00000000E+00  0.00000000E+00
  0.00000000E+00  0.00000000E+00  0.00000000E+00
  0.00000000E+00  0.00000000E+00  0.00000000E+00
  0.00000000E+00  0.00000000E+00  0.00000000E+00
  0.00000000E+00  0.00000000E+00  0.00000000E+00
  0.00000000E+00  0.00000000E+00  0.00000000E+00
  0.00000000E+00  0.00000000E+00  0.00000000E+00
  0.00000000E+00  0.00000000E+00  0.00000000E+00
  0.00000000E+00  0.00000000E+00  0.00000000E+00
  0.00000000E+00  0.00000000E+00  0.00000000E+00
  0.00000000E+00  0.00000000E+00  0.00000000E+00
  0.00000000E+00  0.00000000E+00  0.00000000E+00
  0.00000000E+00  0.00000000E+00  0.00000000E+00
  0.00000000E+00  0.00000000E+00  0.00000000E+00
  0.00000000E+00  0.00000000E+00  0.00000000E+00
  0.00000000E+00  0.00000000E+00  0.00000000E+00
  0.00000000E+00  0.00000000E+00  0.00000000E+00
  0.00000000E+00  0.00000000E+00  0.00000000E+00
  0.00000000E+00  0.00000000E+00  0.00000000E+00
  0.00000000E+00  0.00000000E+00  0.00000000E+00
  0.00000000E+00  0.00000000E+00  0.00000000E+00
  0.00000000E+00  0.00000000E+00  0.00000000E+00
  0.00000000E+00  0.00000000E+00  0.00000000E+00
  0.00000000E+00  0.00000000E+00  0.00000000E+00
  0.00000000E+00  0.00000000E+00  0.00000000E+00
  0.00000000E+00  0.00000000E+00  0.00000000E+00
  0.00000000E+00  0.00000000E+00  0.00000000E+00
  0.00000000E+00  0.00000000E+00  0.00000000E+00
  0.00000000E+00  0.00000000E+00  0.00000000E+00
  0.00000000E+00  0.00000000E+00  0.00000000E+00
  0.00000000E+00  0.00000000E+00  0.00000000E+00
  0.00000000E+00  0.00000000E+00  0.00000000E+00
  0.00000000E+00  0.00000000E+00  0.00000000E+00
  0.00000000E+00  0.00000000E+00  0.00000000E+00
  0.00000000E+00  0.00000000E+00  0.00000000E+00
