Ce12 C1 O25                             
   1.00000000000000     
     7.7074639999999999    0.0000000000000000    0.0000000000000000
    -3.8537319999999999    6.6748599999999998    0.0000000000000000
     0.0000000000000000    0.0000000000000000   28.3190309999999990
   Ce   O    C    O 
    12    24     1     1
Selective dynamics
Direct
  0.1655704520683677  0.3323424882273794  0.3861125189504128   T   T   T
  0.1656340973878685  0.8323177019643231  0.3862605771564517   T   T   T
  0.6655332967992925  0.3323003203210551  0.3861636201775546   T   T   T
  0.6655047857478682  0.8322569826733748  0.3861949292189569   T   T   T
 -0.0018880623921259 -0.0018007950749975  0.6109653942359452   T   T   T
 -0.0019201931458732  0.4986775840541304  0.6109715980062144   T   T   T
  0.4984407923700917 -0.0014250885206513  0.6112026995787382   T   T   T
  0.4983453988717517  0.4985050109728575  0.6116745115248288   T   T   T
  0.3322325954716956  0.1657022640678976  0.4987484081465878   T   T   T
  0.3321885170046437  0.6654234608442217  0.4987699097308784   T   T   T
  0.8320083975711617  0.1654626491326226  0.4986588067079672   T   T   T
  0.8318080940448505  0.6653535908745027  0.4986988038091572   T   T   T
  0.1656736269700714  0.3322432330786065  0.4697143672029445   T   T   T
  0.1651997186997135  0.8321883513579913  0.4699471616382869   T   T   T
  0.6654101439769138  0.3326459079017881  0.4699003361182024   T   T   T
  0.6655771016214503  0.8317880874092963  0.4699116430021772   T   T   T
 -0.0012730488494742 -0.0009625329797209  0.3579054364457070   T   T   T
 -0.0011774211032290  0.4988181751571394  0.3578409806188097   T   T   T
  0.4989875164198654 -0.0010423710494606  0.3580418388001083   T   T   T
  0.4988771175291139  0.4990743434877789  0.3578556021308566   T   T   T
  0.3319571680592546  0.1653387452145077  0.5827285166606236   T   T   T
  0.3316652703617452  0.6652255433478280  0.5827814431184105   T   T   T
  0.8315196995261743  0.1652345537836076  0.5824738715244854   T   T   T
  0.8317026343012771  0.6651599331061685  0.5823836442114616   T   T   T
 -0.0011177575844328 -0.0008591564420117  0.5275988921817815   T   T   T
 -0.0011595535540348  0.4986005059107266  0.5275823297954971   T   T   T
  0.4986608116043602 -0.0012937930727864  0.5277294791983113   T   T   T
  0.4981511165145209  0.4985470281421421  0.5278633957092734   T   T   T
  0.3323129782269647  0.1655465588706706  0.4148552311778683   T   T   T
  0.3321986759422509  0.6657579849010884  0.4149211796104756   T   T   T
  0.8319979982712068  0.1656108335507058  0.4149386950959731   T   T   T
  0.8323169169200251  0.6655612770722972  0.4148899547073835   T   T   T
  0.1631876903156949  0.3308271202947537  0.6393272858702292   T   T   T
  0.1648846381864951  0.8319326189713354  0.6395251787764141   T   T   T
  0.6654755772890143  0.3319641516228726  0.6393235538225167   T   T   T
  0.6652906890943298  0.8321712163604614  0.6393000051269927   T   T   T
  0.3023869710570229  0.3907814340024658  0.7366481420943355   T   T   T
  0.1552235484041070  0.3206900804630391  0.7573800581171776   T   T   T
 
  0.00000000E+00  0.00000000E+00  0.00000000E+00
  0.00000000E+00  0.00000000E+00  0.00000000E+00
  0.00000000E+00  0.00000000E+00  0.00000000E+00
  0.00000000E+00  0.00000000E+00  0.00000000E+00
  0.00000000E+00  0.00000000E+00  0.00000000E+00
  0.00000000E+00  0.00000000E+00  0.00000000E+00
  0.00000000E+00  0.00000000E+00  0.00000000E+00
  0.00000000E+00  0.00000000E+00  0.00000000E+00
  0.00000000E+00  0.00000000E+00  0.00000000E+00
  0.00000000E+00  0.00000000E+00  0.00000000E+00
  0.00000000E+00  0.00000000E+00  0.00000000E+00
  0.00000000E+00  0.00000000E+00  0.00000000E+00
  0.00000000E+00  0.00000000E+00  0.00000000E+00
  0.00000000E+00  0.00000000E+00  0.00000000E+00
  0.00000000E+00  0.00000000E+00  0.00000000E+00
  0.00000000E+00  0.00000000E+00  0.00000000E+00
  0.00000000E+00  0.00000000E+00  0.00000000E+00
  0.00000000E+00  0.00000000E+00  0.00000000E+00
  0.00000000E+00  0.00000000E+00  0.00000000E+00
  0.00000000E+00  0.00000000E+00  0.00000000E+00
  0.00000000E+00  0.00000000E+00  0.00000000E+00
  0.00000000E+00  0.00000000E+00  0.00000000E+00
  0.00000000E+00  0.00000000E+00  0.00000000E+00
  0.00000000E+00  0.00000000E+00  0.00000000E+00
  0.00000000E+00  0.00000000E+00  0.00000000E+00
  0.00000000E+00  0.00000000E+00  0.00000000E+00
  0.00000000E+00  0.00000000E+00  0.00000000E+00
  0.00000000E+00  0.00000000E+00  0.00000000E+00
  0.00000000E+00  0.00000000E+00  0.00000000E+00
  0.00000000E+00  0.00000000E+00  0.00000000E+00
  0.00000000E+00  0.00000000E+00  0.00000000E+00
  0.00000000E+00  0.00000000E+00  0.00000000E+00
  0.00000000E+00  0.00000000E+00  0.00000000E+00
  0.00000000E+00  0.00000000E+00  0.00000000E+00
  0.00000000E+00  0.00000000E+00  0.00000000E+00
  0.00000000E+00  0.00000000E+00  0.00000000E+00
  0.00000000E+00  0.00000000E+00  0.00000000E+00
  0.00000000E+00  0.00000000E+00  0.00000000E+00
