Ce12 C1 O25                             
   1.00000000000000     
     7.7074639999999999    0.0000000000000000    0.0000000000000000
    -3.8537319999999999    6.6748599999999998    0.0000000000000000
     0.0000000000000000    0.0000000000000000   28.3190309999999990
   Ce   O    C    O 
    12    24     1     1
Selective dynamics
Direct
  0.1665612586464516  0.3337287157947439  0.3864700284271578   T   T   T
  0.1665754376695538  0.8336594672797326  0.3865345635433973   T   T   T
  0.6665541836943626  0.3336904180494111  0.3864405913850092   T   T   T
  0.6665154861916345  0.8336540499902501  0.3864733044410772   T   T   T
 -0.0009338856678505  0.0003393350523402  0.6113082013422266   T   T   T
 -0.0004127387494577  0.5003878404512632  0.6115728485666826   T   T   T
  0.4998649553214389  0.0006262772796936  0.6114242527366838   T   T   T
  0.4996556821252842  0.5005000946047118  0.6116963455107062   T   T   T
  0.3331425276902624  0.1671523553718883  0.4990058430688800   T   T   T
  0.3330880081549413  0.6670779606303171  0.4990168131660652   T   T   T
  0.8330004735845915  0.1671091965391683  0.4989351176000807   T   T   T
  0.8330495706272715  0.6669444441733294  0.4989898991422582   T   T   T
  0.1664668229656748  0.3338381349287621  0.4701463381545651   T   T   T
  0.1664655294135761  0.8336491177127803  0.4701346854449677   T   T   T
  0.6664659335145815  0.3337452634438243  0.4700431356145696   T   T   T
  0.6663137513999876  0.8336765236873434  0.4700729344567788   T   T   T
 -0.0002363829131483  0.0003898670756437  0.3582650586258249   T   T   T
 -0.0001003442161444  0.5002870416722615  0.3582051034730774   T   T   T
  0.5000263404410659  0.0003667260641694  0.3581916053889450   T   T   T
  0.4999420826068471  0.5004666228932805  0.3582076486635548   T   T   T
  0.3327724562228515  0.1669575127513773  0.5828898014461195   T   T   T
  0.3332676936680913  0.6676306683654054  0.5828539410773258   T   T   T
  0.8324818162241930  0.1667757924377421  0.5827571440747980   T   T   T
  0.8331646054103559  0.6672885231588386  0.5829204213551250   T   T   T
 -0.0005555045508794  0.0004275952693752  0.5279255326620480   T   T   T
 -0.0004606213738336  0.5001862008396301  0.5280076339639375   T   T   T
  0.4998618357401957  0.0006866808394522  0.5279348013578281   T   T   T
  0.4998713534786504  0.5004358828763091  0.5279929227613011   T   T   T
  0.3331788198898659  0.1670477111385321  0.4151573812114566   T   T   T
  0.3331422857362996  0.6670255124873369  0.4151840836913298   T   T   T
  0.8331981252203522  0.1670757355009479  0.4152384987230002   T   T   T
  0.8332317294693677  0.6670307782054750  0.4151362855577264   T   T   T
  0.1652621114319986  0.3339381647256359  0.6395932349975569   T   T   T
  0.1666577273109087  0.8340245146708116  0.6398321790190956   T   T   T
  0.6664170437748927  0.3334451259194465  0.6397124668819477   T   T   T
  0.6664550238881988  0.8342060892309738  0.6398588265407378   T   T   T
  0.1490867255123079 -0.0004021797470764  0.7459922354858878   T   T   T
  0.2798410804452581  0.1560202386348722  0.7376682904402665   T   T   T
 
  0.00000000E+00  0.00000000E+00  0.00000000E+00
  0.00000000E+00  0.00000000E+00  0.00000000E+00
  0.00000000E+00  0.00000000E+00  0.00000000E+00
  0.00000000E+00  0.00000000E+00  0.00000000E+00
  0.00000000E+00  0.00000000E+00  0.00000000E+00
  0.00000000E+00  0.00000000E+00  0.00000000E+00
  0.00000000E+00  0.00000000E+00  0.00000000E+00
  0.00000000E+00  0.00000000E+00  0.00000000E+00
  0.00000000E+00  0.00000000E+00  0.00000000E+00
  0.00000000E+00  0.00000000E+00  0.00000000E+00
  0.00000000E+00  0.00000000E+00  0.00000000E+00
  0.00000000E+00  0.00000000E+00  0.00000000E+00
  0.00000000E+00  0.00000000E+00  0.00000000E+00
  0.00000000E+00  0.00000000E+00  0.00000000E+00
  0.00000000E+00  0.00000000E+00  0.00000000E+00
  0.00000000E+00  0.00000000E+00  0.00000000E+00
  0.00000000E+00  0.00000000E+00  0.00000000E+00
  0.00000000E+00  0.00000000E+00  0.00000000E+00
  0.00000000E+00  0.00000000E+00  0.00000000E+00
  0.00000000E+00  0.00000000E+00  0.00000000E+00
  0.00000000E+00  0.00000000E+00  0.00000000E+00
  0.00000000E+00  0.00000000E+00  0.00000000E+00
  0.00000000E+00  0.00000000E+00  0.00000000E+00
  0.00000000E+00  0.00000000E+00  0.00000000E+00
  0.00000000E+00  0.00000000E+00  0.00000000E+00
  0.00000000E+00  0.00000000E+00  0.00000000E+00
  0.00000000E+00  0.00000000E+00  0.00000000E+00
  0.00000000E+00  0.00000000E+00  0.00000000E+00
  0.00000000E+00  0.00000000E+00  0.00000000E+00
  0.00000000E+00  0.00000000E+00  0.00000000E+00
  0.00000000E+00  0.00000000E+00  0.00000000E+00
  0.00000000E+00  0.00000000E+00  0.00000000E+00
  0.00000000E+00  0.00000000E+00  0.00000000E+00
  0.00000000E+00  0.00000000E+00  0.00000000E+00
  0.00000000E+00  0.00000000E+00  0.00000000E+00
  0.00000000E+00  0.00000000E+00  0.00000000E+00
  0.00000000E+00  0.00000000E+00  0.00000000E+00
  0.00000000E+00  0.00000000E+00  0.00000000E+00
