Ce12 C1 O25                             
   1.00000000000000     
     7.7074639999999999    0.0000000000000000    0.0000000000000000
    -3.8537319999999999    6.6748599999999998    0.0000000000000000
     0.0000000000000000    0.0000000000000000   28.3190309999999990
   Ce   O    C    O 
    12    24     1     1
Selective dynamics
Direct
  0.1659451866786729  0.3326904536846234  0.3862792878463768   T   T   T
  0.1659752290083132  0.8326002917644377  0.3863196997598753   T   T   T
  0.6660697204219754  0.3326942410684688  0.3862495791591639   T   T   T
  0.6660193923298452  0.8326530021756202  0.3862309184584322   T   T   T
 -0.0008535621613594 -0.0008436828088105  0.6112387250982223   T   T   T
 -0.0006843308032945  0.4991531764442327  0.6112891064892010   T   T   T
  0.4994538117526856 -0.0007280238869607  0.6111749151692413   T   T   T
  0.4995141698100887  0.4993490486493674  0.6114300360693964   T   T   T
  0.3327797892110875  0.1661653951937814  0.4987959725625896   T   T   T
  0.3328121352008543  0.6659898550044113  0.4987921889532654   T   T   T
  0.8326938587910010  0.1659944448047296  0.4987404002757326   T   T   T
  0.8327004213811057  0.6659670283410067  0.4987886073992391   T   T   T
  0.1663513340787482  0.3327603141585890  0.4699203352947748   T   T   T
  0.1662384810357543  0.8328373185311881  0.4699292045346721   T   T   T
  0.6657934413059057  0.3326368704576537  0.4698207632267754   T   T   T
  0.6658807690325630  0.8325336883728638  0.4697885424860780   T   T   T
 -0.0010859785120357 -0.0007943389754899  0.3580092446544340   T   T   T
 -0.0008121998687963  0.4991228063710126  0.3579356485521437   T   T   T
  0.4995979804919588 -0.0007248039836567  0.3579930352029840   T   T   T
  0.4994881206019042  0.4995701338520915  0.3579807444573540   T   T   T
  0.3326402464767174  0.1662848561386716  0.5825989883723137   T   T   T
  0.3325557607747230  0.6656870207404297  0.5826466618878244   T   T   T
  0.8327992445282107  0.1659368954581567  0.5825654982595619   T   T   T
  0.8328789391917465  0.6658948405207527  0.5827482155075666   T   T   T
 -0.0009458883984047 -0.0008911839811209  0.5276524274806715   T   T   T
 -0.0008049921342879  0.4991927396032931  0.5276479202497738   T   T   T
  0.4995209732130321 -0.0005962710858702  0.5276506344724325   T   T   T
  0.4998163013347576  0.4996426777603247  0.5277633444487961   T   T   T
  0.3325168171051013  0.1658947174334116  0.4148641341956679   T   T   T
  0.3323130434390108  0.6658277315005733  0.4149192529133380   T   T   T
  0.8328952161817931  0.1662630598219912  0.4149884328736256   T   T   T
  0.8329670381486961  0.6659539495465951  0.4149396364803932   T   T   T
  0.1655138179638699  0.3323094809897114  0.6396354830040675   T   T   T
  0.1667496344307037  0.8334116816219936  0.6396124091204402   T   T   T
  0.6661869916995247  0.3321707898409997  0.6394329501341667   T   T   T
  0.6659715551735195  0.8326060286825691  0.6395594827746980   T   T   T
  0.2661549857088480  0.1324598227369024  0.7510841142178851   T   T   T
  0.3974935453754596  0.2856359434514580  0.7407734579568234   T   T   T
 
  0.00000000E+00  0.00000000E+00  0.00000000E+00
  0.00000000E+00  0.00000000E+00  0.00000000E+00
  0.00000000E+00  0.00000000E+00  0.00000000E+00
  0.00000000E+00  0.00000000E+00  0.00000000E+00
  0.00000000E+00  0.00000000E+00  0.00000000E+00
  0.00000000E+00  0.00000000E+00  0.00000000E+00
  0.00000000E+00  0.00000000E+00  0.00000000E+00
  0.00000000E+00  0.00000000E+00  0.00000000E+00
  0.00000000E+00  0.00000000E+00  0.00000000E+00
  0.00000000E+00  0.00000000E+00  0.00000000E+00
  0.00000000E+00  0.00000000E+00  0.00000000E+00
  0.00000000E+00  0.00000000E+00  0.00000000E+00
  0.00000000E+00  0.00000000E+00  0.00000000E+00
  0.00000000E+00  0.00000000E+00  0.00000000E+00
  0.00000000E+00  0.00000000E+00  0.00000000E+00
  0.00000000E+00  0.00000000E+00  0.00000000E+00
  0.00000000E+00  0.00000000E+00  0.00000000E+00
  0.00000000E+00  0.00000000E+00  0.00000000E+00
  0.00000000E+00  0.00000000E+00  0.00000000E+00
  0.00000000E+00  0.00000000E+00  0.00000000E+00
  0.00000000E+00  0.00000000E+00  0.00000000E+00
  0.00000000E+00  0.00000000E+00  0.00000000E+00
  0.00000000E+00  0.00000000E+00  0.00000000E+00
  0.00000000E+00  0.00000000E+00  0.00000000E+00
  0.00000000E+00  0.00000000E+00  0.00000000E+00
  0.00000000E+00  0.00000000E+00  0.00000000E+00
  0.00000000E+00  0.00000000E+00  0.00000000E+00
  0.00000000E+00  0.00000000E+00  0.00000000E+00
  0.00000000E+00  0.00000000E+00  0.00000000E+00
  0.00000000E+00  0.00000000E+00  0.00000000E+00
  0.00000000E+00  0.00000000E+00  0.00000000E+00
  0.00000000E+00  0.00000000E+00  0.00000000E+00
  0.00000000E+00  0.00000000E+00  0.00000000E+00
  0.00000000E+00  0.00000000E+00  0.00000000E+00
  0.00000000E+00  0.00000000E+00  0.00000000E+00
  0.00000000E+00  0.00000000E+00  0.00000000E+00
  0.00000000E+00  0.00000000E+00  0.00000000E+00
  0.00000000E+00  0.00000000E+00  0.00000000E+00
