Ce12 C1 O25                             
   1.00000000000000     
     7.7074639999999999    0.0000000000000000    0.0000000000000000
    -3.8537319999999999    6.6748599999999998    0.0000000000000000
     0.0000000000000000    0.0000000000000000   28.3190309999999990
   Ce   O    C    O 
    12    24     1     1
Selective dynamics
Direct
  0.1666770827982432  0.3333380413991265  0.3874333554641081   T   T   T
  0.1666669999999968  0.8333330000000032  0.3875469342225409   T   T   T
  0.6666619586008736  0.3333380413991265  0.3874333554641081   T   T   T
  0.6666619586008736  0.8333229172017567  0.3874333554641081   T   T   T
 -0.0000863885866731  0.0000863885866731  0.6123462557325573   T   T   T
 -0.0000863885866731  0.4998272228266538  0.6123462557325573   T   T   T
  0.5001727771733465  0.0000863885866731  0.6123462557325573   T   T   T
  0.5000000000000000  0.5000000000000000  0.6129451893237418   T   T   T
  0.3334737260343155  0.1669484520686216  0.5000073701201994   T   T   T
  0.3334737260343155  0.6665262739656845  0.5000073701201994   T   T   T
  0.8333330000000032  0.1666669999999968  0.4999246565248063   T   T   T
  0.8330515479313786  0.6665262739656845  0.5000073701201994   T   T   T
  0.1667637163308206  0.3333813581654151  0.4711420069543902   T   T   T
  0.1666669999999968  0.8333330000000032  0.4711839375926107   T   T   T
  0.6666186418345851  0.3333813581654151  0.4711420069543902   T   T   T
  0.6666186418345851  0.8332362836691795  0.4711420069543902   T   T   T
 -0.0000020816703366  0.0000020816703366  0.3592223652521460   T   T   T
 -0.0000020816703366  0.4999958366593268  0.3592223652521460   T   T   T
  0.5000041633406732  0.0000020816703366  0.3592223652521460   T   T   T
  0.5000000000000000  0.5000000000000000  0.3592054597106792   T   T   T
  0.3337775686035672  0.1675561372071248  0.5839815146595007   T   T   T
  0.3337775686035672  0.6662224313964328  0.5839815146595007   T   T   T
  0.8333330000000032  0.1666669999999968  0.5833575610410844   T   T   T
  0.8324438627928752  0.6662224313964328  0.5839815146595007   T   T   T
  0.0002171549403378 -0.0002171549403378  0.5287321080625960   T   T   T
  0.0002171549403378  0.5004343098806755  0.5287321080625960   T   T   T
  0.4995656901193243 -0.0002171549403378  0.5287321080625960   T   T   T
  0.5000000000000000  0.5000000000000000  0.5290391759724106   T   T   T
  0.3333896927630151  0.1667803855260206  0.4161558005310184   T   T   T
  0.3333896927630151  0.6666103072369850  0.4161558005310184   T   T   T
  0.8333330000000032  0.1666669999999968  0.4160962976542426   T   T   T
  0.8332196144739794  0.6666103072369850  0.4161558005310184   T   T   T
  0.1649548336036160  0.3324769168018128  0.6406228276298795   T   T   T
  0.1666669999999968  0.8333330000000032  0.6409464740650075   T   T   T
  0.6675230831981873  0.3324769168018128  0.6406228276298795   T   T   T
  0.6675230831981873  0.8350451663963839  0.6406228276298795   T   T   T
  0.5000000000000000  0.5000000000000000  0.7646682045475615   T   T   T
  0.5000000000000000  0.5000000000000000  0.7242712961261277   T   T   T
 
  0.00000000E+00  0.00000000E+00  0.00000000E+00
  0.00000000E+00  0.00000000E+00  0.00000000E+00
  0.00000000E+00  0.00000000E+00  0.00000000E+00
  0.00000000E+00  0.00000000E+00  0.00000000E+00
  0.00000000E+00  0.00000000E+00  0.00000000E+00
  0.00000000E+00  0.00000000E+00  0.00000000E+00
  0.00000000E+00  0.00000000E+00  0.00000000E+00
  0.00000000E+00  0.00000000E+00  0.00000000E+00
  0.00000000E+00  0.00000000E+00  0.00000000E+00
  0.00000000E+00  0.00000000E+00  0.00000000E+00
  0.00000000E+00  0.00000000E+00  0.00000000E+00
  0.00000000E+00  0.00000000E+00  0.00000000E+00
  0.00000000E+00  0.00000000E+00  0.00000000E+00
  0.00000000E+00  0.00000000E+00  0.00000000E+00
  0.00000000E+00  0.00000000E+00  0.00000000E+00
  0.00000000E+00  0.00000000E+00  0.00000000E+00
  0.00000000E+00  0.00000000E+00  0.00000000E+00
  0.00000000E+00  0.00000000E+00  0.00000000E+00
  0.00000000E+00  0.00000000E+00  0.00000000E+00
  0.00000000E+00  0.00000000E+00  0.00000000E+00
  0.00000000E+00  0.00000000E+00  0.00000000E+00
  0.00000000E+00  0.00000000E+00  0.00000000E+00
  0.00000000E+00  0.00000000E+00  0.00000000E+00
  0.00000000E+00  0.00000000E+00  0.00000000E+00
  0.00000000E+00  0.00000000E+00  0.00000000E+00
  0.00000000E+00  0.00000000E+00  0.00000000E+00
  0.00000000E+00  0.00000000E+00  0.00000000E+00
  0.00000000E+00  0.00000000E+00  0.00000000E+00
  0.00000000E+00  0.00000000E+00  0.00000000E+00
  0.00000000E+00  0.00000000E+00  0.00000000E+00
  0.00000000E+00  0.00000000E+00  0.00000000E+00
  0.00000000E+00  0.00000000E+00  0.00000000E+00
  0.00000000E+00  0.00000000E+00  0.00000000E+00
  0.00000000E+00  0.00000000E+00  0.00000000E+00
  0.00000000E+00  0.00000000E+00  0.00000000E+00
  0.00000000E+00  0.00000000E+00  0.00000000E+00
  0.00000000E+00  0.00000000E+00  0.00000000E+00
  0.00000000E+00  0.00000000E+00  0.00000000E+00
