Ce12 C1 O25                             
   1.00000000000000     
     7.7074639999999999    0.0000000000000000    0.0000000000000000
    -3.8537319999999999    6.6748599999999998    0.0000000000000000
     0.0000000000000000    0.0000000000000000   28.3190309999999990
   Ce   O    C    O 
    12    24     1     1
Selective dynamics
Direct
  0.1681380548298448  0.3356089395423147  0.3860700437093725   T   T   T
  0.1681003650124456  0.8353509621195810  0.3860671091907261   T   T   T
  0.6681141894650604  0.3355055903743264  0.3860660102702611   T   T   T
  0.6679880301941786  0.8353739319121047  0.3860839419506450   T   T   T
  0.0006187265291988  0.0018493980817326  0.6113846944097815   T   T   T
  0.0005597562440749  0.5017435928061960  0.6111324465825827   T   T   T
  0.5006998804129823  0.0015968828732146  0.6110116871193072   T   T   T
  0.5006029772950128  0.5019065554854885  0.6111617089273520   T   T   T
  0.3341908743984343  0.1685296129627788  0.4986425960955602   T   T   T
  0.3343606571094146  0.6685216932435187  0.4986148054961070   T   T   T
  0.8343168959294468  0.1684743946855227  0.4986444989222281   T   T   T
  0.8343639886469637  0.6685087812463347  0.4986627127456723   T   T   T
  0.1676875807235468  0.3347863525841490  0.4697581701507472   T   T   T
  0.1676177655168517  0.8355347115881051  0.4696979064813958   T   T   T
  0.6676295194488677  0.3352004499306865  0.4698158525333912   T   T   T
  0.6680547654763181  0.8353536543444389  0.4696397195412156   T   T   T
  0.0013879850059812  0.0020184946975882  0.3580534025124845   T   T   T
  0.0020040013326550  0.5025852831788375  0.3576507437730101   T   T   T
  0.5011057642431153  0.0014701093090972  0.3577640272711641   T   T   T
  0.5013416083701836  0.5026545207724376  0.3576742735048835   T   T   T
  0.3344127871414453  0.1684591620667274  0.5825577794355548   T   T   T
  0.3346029626739900  0.6693094279352387  0.5825174728030792   T   T   T
  0.8329150672889821  0.1679104431246714  0.5824877242621158   T   T   T
  0.8340815587057456  0.6683307668918161  0.5825871615361786   T   T   T
  0.0007153182317040  0.0016922766409096  0.5277370895453527   T   T   T
  0.0012173216230523  0.5018930099240960  0.5275826635797974   T   T   T
  0.5006183716000387  0.0015485545926199  0.5274809855753587   T   T   T
  0.5008940106508463  0.5020825634146805  0.5276537725517428   T   T   T
  0.3353231797345541  0.1692251931230700  0.4146454738273606   T   T   T
  0.3344705268739979  0.6684563340504708  0.4148366094063504   T   T   T
  0.8345954568236492  0.1693013388262879  0.4147077701298463   T   T   T
  0.8343850299162870  0.6679826060394874  0.4147427711542561   T   T   T
  0.1662619030502016  0.3355646841006082  0.6388520658147206   T   T   T
  0.1676468508768802  0.8355944867790021  0.6396868873357372   T   T   T
  0.6677999432008271  0.3356946947211557  0.6395719437789877   T   T   T
  0.6676831648055318  0.8349702031497146  0.6395631039629391   T   T   T
  0.3916062917422352  0.2047924821349539  0.7382465675374096   T   T   T
  0.4978328688754516  0.1690618607460376  0.7587358065753191   T   T   T
 
  0.00000000E+00  0.00000000E+00  0.00000000E+00
  0.00000000E+00  0.00000000E+00  0.00000000E+00
  0.00000000E+00  0.00000000E+00  0.00000000E+00
  0.00000000E+00  0.00000000E+00  0.00000000E+00
  0.00000000E+00  0.00000000E+00  0.00000000E+00
  0.00000000E+00  0.00000000E+00  0.00000000E+00
  0.00000000E+00  0.00000000E+00  0.00000000E+00
  0.00000000E+00  0.00000000E+00  0.00000000E+00
  0.00000000E+00  0.00000000E+00  0.00000000E+00
  0.00000000E+00  0.00000000E+00  0.00000000E+00
  0.00000000E+00  0.00000000E+00  0.00000000E+00
  0.00000000E+00  0.00000000E+00  0.00000000E+00
  0.00000000E+00  0.00000000E+00  0.00000000E+00
  0.00000000E+00  0.00000000E+00  0.00000000E+00
  0.00000000E+00  0.00000000E+00  0.00000000E+00
  0.00000000E+00  0.00000000E+00  0.00000000E+00
  0.00000000E+00  0.00000000E+00  0.00000000E+00
  0.00000000E+00  0.00000000E+00  0.00000000E+00
  0.00000000E+00  0.00000000E+00  0.00000000E+00
  0.00000000E+00  0.00000000E+00  0.00000000E+00
  0.00000000E+00  0.00000000E+00  0.00000000E+00
  0.00000000E+00  0.00000000E+00  0.00000000E+00
  0.00000000E+00  0.00000000E+00  0.00000000E+00
  0.00000000E+00  0.00000000E+00  0.00000000E+00
  0.00000000E+00  0.00000000E+00  0.00000000E+00
  0.00000000E+00  0.00000000E+00  0.00000000E+00
  0.00000000E+00  0.00000000E+00  0.00000000E+00
  0.00000000E+00  0.00000000E+00  0.00000000E+00
  0.00000000E+00  0.00000000E+00  0.00000000E+00
  0.00000000E+00  0.00000000E+00  0.00000000E+00
  0.00000000E+00  0.00000000E+00  0.00000000E+00
  0.00000000E+00  0.00000000E+00  0.00000000E+00
  0.00000000E+00  0.00000000E+00  0.00000000E+00
  0.00000000E+00  0.00000000E+00  0.00000000E+00
  0.00000000E+00  0.00000000E+00  0.00000000E+00
  0.00000000E+00  0.00000000E+00  0.00000000E+00
  0.00000000E+00  0.00000000E+00  0.00000000E+00
  0.00000000E+00  0.00000000E+00  0.00000000E+00
