Ce12 C1 O25                             
   1.00000000000000     
     7.7074639999999999    0.0000000000000000    0.0000000000000000
    -3.8537319999999999    6.6748599999999998    0.0000000000000000
     0.0000000000000000    0.0000000000000000   28.3190309999999990
   Ce   O    C    O 
    12    24     1     1
Selective dynamics
Direct
  0.1674609857441789  0.3341803851530976  0.3867500319984903   T   T   T
  0.1674968850021329  0.8342708689114916  0.3867493464112023   T   T   T
  0.6675361459709187  0.3342663462337543  0.3867808340842411   T   T   T
  0.6675597468348585  0.8342969110487812  0.3867418488771928   T   T   T
  0.0014038729349920  0.0016792373110795  0.6115832498771397   T   T   T
  0.0013475697093699  0.5015526980282728  0.6114919490988970   T   T   T
  0.5016260639487572  0.0014613993049649  0.6113628050799694   T   T   T
  0.5012460325905591  0.5015556093199358  0.6115156891410826   T   T   T
  0.3343590673034864  0.1678841908974934  0.4991515055954490   T   T   T
  0.3344117446576087  0.6678520968990854  0.4991125060725052   T   T   T
  0.8345012769855031  0.1678573156846657  0.4991291131155377   T   T   T
  0.8344247804629632  0.6679294391025200  0.4991623849121411   T   T   T
  0.1674921432902366  0.3340712308432413  0.4702432194202644   T   T   T
  0.1674979433711712  0.8345550840116648  0.4702767095685585   T   T   T
  0.6676287788527124  0.3344655680528609  0.4703754025009893   T   T   T
  0.6679561332986198  0.8345295189000883  0.4702787716066302   T   T   T
  0.0008194782346295  0.0008806624179374  0.3584129927337593   T   T   T
  0.0008192974533506  0.5009532100552485  0.3585077101284150   T   T   T
  0.5008752711814833  0.0009361426663252  0.3585069107629308   T   T   T
  0.5009246980091168  0.5009707743000733  0.3585140419964708   T   T   T
  0.3348021494690051  0.1680482816020222  0.5829010459548694   T   T   T
  0.3347020181218331  0.6685910954732638  0.5829703301079673   T   T   T
  0.8342474058187053  0.1681670782826379  0.5828544795081679   T   T   T
  0.8347513342310908  0.6680578592545265  0.5828723532020785   T   T   T
  0.0012626417216396  0.0015299909913184  0.5280620194113818   T   T   T
  0.0013935665921720  0.5012497003835964  0.5279180271608070   T   T   T
  0.5011360150694490  0.0011579480001674  0.5279211031411745   T   T   T
  0.5008924637375924  0.5013033121561792  0.5280085861627141   T   T   T
  0.3342832819067548  0.1676010315247237  0.4153735770891713   T   T   T
  0.3341053126947708  0.6675581006692229  0.4153749602369546   T   T   T
  0.8341661320407555  0.1677001869500687  0.4153764367885877   T   T   T
  0.8342675677120547  0.6675953634093538  0.4153127156860507   T   T   T
  0.1677204092375356  0.3350493153313744  0.6394638841037795   T   T   T
  0.1681106109817578  0.8351208794253058  0.6399225812950471   T   T   T
  0.6677718784301414  0.3349579377336180  0.6398831688965728   T   T   T
  0.6682530319418575  0.8346708920267113  0.6396059536124192   T   T   T
  0.3942705678072763  0.1247815616231293  0.7376789211139217   T   T   T
  0.4924216966489550  0.0529327760202014  0.7416428335464674   T   T   T
 
  0.00000000E+00  0.00000000E+00  0.00000000E+00
  0.00000000E+00  0.00000000E+00  0.00000000E+00
  0.00000000E+00  0.00000000E+00  0.00000000E+00
  0.00000000E+00  0.00000000E+00  0.00000000E+00
  0.00000000E+00  0.00000000E+00  0.00000000E+00
  0.00000000E+00  0.00000000E+00  0.00000000E+00
  0.00000000E+00  0.00000000E+00  0.00000000E+00
  0.00000000E+00  0.00000000E+00  0.00000000E+00
  0.00000000E+00  0.00000000E+00  0.00000000E+00
  0.00000000E+00  0.00000000E+00  0.00000000E+00
  0.00000000E+00  0.00000000E+00  0.00000000E+00
  0.00000000E+00  0.00000000E+00  0.00000000E+00
  0.00000000E+00  0.00000000E+00  0.00000000E+00
  0.00000000E+00  0.00000000E+00  0.00000000E+00
  0.00000000E+00  0.00000000E+00  0.00000000E+00
  0.00000000E+00  0.00000000E+00  0.00000000E+00
  0.00000000E+00  0.00000000E+00  0.00000000E+00
  0.00000000E+00  0.00000000E+00  0.00000000E+00
  0.00000000E+00  0.00000000E+00  0.00000000E+00
  0.00000000E+00  0.00000000E+00  0.00000000E+00
  0.00000000E+00  0.00000000E+00  0.00000000E+00
  0.00000000E+00  0.00000000E+00  0.00000000E+00
  0.00000000E+00  0.00000000E+00  0.00000000E+00
  0.00000000E+00  0.00000000E+00  0.00000000E+00
  0.00000000E+00  0.00000000E+00  0.00000000E+00
  0.00000000E+00  0.00000000E+00  0.00000000E+00
  0.00000000E+00  0.00000000E+00  0.00000000E+00
  0.00000000E+00  0.00000000E+00  0.00000000E+00
  0.00000000E+00  0.00000000E+00  0.00000000E+00
  0.00000000E+00  0.00000000E+00  0.00000000E+00
  0.00000000E+00  0.00000000E+00  0.00000000E+00
  0.00000000E+00  0.00000000E+00  0.00000000E+00
  0.00000000E+00  0.00000000E+00  0.00000000E+00
  0.00000000E+00  0.00000000E+00  0.00000000E+00
  0.00000000E+00  0.00000000E+00  0.00000000E+00
  0.00000000E+00  0.00000000E+00  0.00000000E+00
  0.00000000E+00  0.00000000E+00  0.00000000E+00
  0.00000000E+00  0.00000000E+00  0.00000000E+00
