Ce12 C1 O25                             
   1.00000000000000     
     7.7074639999999999    0.0000000000000000    0.0000000000000000
    -3.8537319999999999    6.6748599999999998    0.0000000000000000
     0.0000000000000000    0.0000000000000000   28.3190309999999990
   Ce   O    C    O 
    12    24     1     1
Selective dynamics
Direct
  0.1649214994542860  0.3325719163973476  0.3871454592116215   T   T   T
  0.1650082264446115  0.8326120827659222  0.3870630875076407   T   T   T
  0.6649969310821331  0.3325945865748106  0.3870199911533963   T   T   T
  0.6649989562868848  0.8326149394654041  0.3870107943732046   T   T   T
 -0.0022113040522024 -0.0010757697986512  0.6117694228558498   T   T   T
 -0.0021802283501040  0.4988720973806914  0.6117614930998436   T   T   T
  0.4977587414061885 -0.0011024113167108  0.6117706501312873   T   T   T
  0.4979580772511061  0.4989410225218929  0.6121797493691052   T   T   T
  0.3315391528543401  0.1660325855397894  0.4994745574603159   T   T   T
  0.3315545219356236  0.6656454882467586  0.4994759608002045   T   T   T
  0.8315076353430911  0.1658029478020740  0.4994055439524549   T   T   T
  0.8315073518063766  0.6657787465320917  0.4994937262558788   T   T   T
  0.1649843731761136  0.3325684079717056  0.4707533509430668   T   T   T
  0.1652875950385681  0.8326873866006306  0.4704397138867347   T   T   T
  0.6646223275724991  0.3321180383229931  0.4704702596087278   T   T   T
  0.6645878162497425  0.8326147086895317  0.4704801104797684   T   T   T
 -0.0022179584883205 -0.0010918982377211  0.3588082124375164   T   T   T
 -0.0021720842604103  0.4991630161364445  0.3588033229401160   T   T   T
  0.4982384414166482 -0.0007698415110242  0.3587823933849597   T   T   T
  0.4985252576774307  0.4994267894945190  0.3588192461709420   T   T   T
  0.3311347069538694  0.1659202848560291  0.5832439882878397   T   T   T
  0.3312357373869027  0.6653254489115989  0.5832464408736424   T   T   T
  0.8312543449018918  0.1654839940116210  0.5829930363233421   T   T   T
  0.8313827568783194  0.6657375616717016  0.5834235002505149   T   T   T
 -0.0021899345377726 -0.0016136039119091  0.5282448262260828   T   T   T
 -0.0021563398675819  0.4994664548926419  0.5282604555398506   T   T   T
  0.4976858879238696 -0.0010701461773516  0.5283068243389090   T   T   T
  0.4988955234462431  0.4994980166072551  0.5284451826859787   T   T   T
  0.3312521984209692  0.1660572052304805  0.4156251668399830   T   T   T
  0.3312422829296539  0.6654050831969939  0.4156341576199256   T   T   T
  0.8320070003411517  0.1661159282345541  0.4156795427398287   T   T   T
  0.8316507606837291  0.6659144465612264  0.4157640045778749   T   T   T
  0.1636007610451926  0.3317889880152239  0.6401350337996390   T   T   T
  0.1650684124885329  0.8325661934276627  0.6401836674380772   T   T   T
  0.6649409041658124  0.3317542301496430  0.6399954697906168   T   T   T
  0.6646966158305835  0.8327398417442192  0.6401310103179880   T   T   T
  0.3198416034186448  0.3809934489947680  0.7706556196349790   T   T   T
  0.4159074477453872  0.4296897840051390  0.7372210266922926   T   T   T
 
  0.00000000E+00  0.00000000E+00  0.00000000E+00
  0.00000000E+00  0.00000000E+00  0.00000000E+00
  0.00000000E+00  0.00000000E+00  0.00000000E+00
  0.00000000E+00  0.00000000E+00  0.00000000E+00
  0.00000000E+00  0.00000000E+00  0.00000000E+00
  0.00000000E+00  0.00000000E+00  0.00000000E+00
  0.00000000E+00  0.00000000E+00  0.00000000E+00
  0.00000000E+00  0.00000000E+00  0.00000000E+00
  0.00000000E+00  0.00000000E+00  0.00000000E+00
  0.00000000E+00  0.00000000E+00  0.00000000E+00
  0.00000000E+00  0.00000000E+00  0.00000000E+00
  0.00000000E+00  0.00000000E+00  0.00000000E+00
  0.00000000E+00  0.00000000E+00  0.00000000E+00
  0.00000000E+00  0.00000000E+00  0.00000000E+00
  0.00000000E+00  0.00000000E+00  0.00000000E+00
  0.00000000E+00  0.00000000E+00  0.00000000E+00
  0.00000000E+00  0.00000000E+00  0.00000000E+00
  0.00000000E+00  0.00000000E+00  0.00000000E+00
  0.00000000E+00  0.00000000E+00  0.00000000E+00
  0.00000000E+00  0.00000000E+00  0.00000000E+00
  0.00000000E+00  0.00000000E+00  0.00000000E+00
  0.00000000E+00  0.00000000E+00  0.00000000E+00
  0.00000000E+00  0.00000000E+00  0.00000000E+00
  0.00000000E+00  0.00000000E+00  0.00000000E+00
  0.00000000E+00  0.00000000E+00  0.00000000E+00
  0.00000000E+00  0.00000000E+00  0.00000000E+00
  0.00000000E+00  0.00000000E+00  0.00000000E+00
  0.00000000E+00  0.00000000E+00  0.00000000E+00
  0.00000000E+00  0.00000000E+00  0.00000000E+00
  0.00000000E+00  0.00000000E+00  0.00000000E+00
  0.00000000E+00  0.00000000E+00  0.00000000E+00
  0.00000000E+00  0.00000000E+00  0.00000000E+00
  0.00000000E+00  0.00000000E+00  0.00000000E+00
  0.00000000E+00  0.00000000E+00  0.00000000E+00
  0.00000000E+00  0.00000000E+00  0.00000000E+00
  0.00000000E+00  0.00000000E+00  0.00000000E+00
  0.00000000E+00  0.00000000E+00  0.00000000E+00
  0.00000000E+00  0.00000000E+00  0.00000000E+00
