Ce12 C1 O25                             
   1.00000000000000     
     7.7074639999999999    0.0000000000000000    0.0000000000000000
    -3.8537319999999999    6.6748599999999998    0.0000000000000000
     0.0000000000000000    0.0000000000000000   28.3190309999999990
   Ce   O    C    O 
    12    24     1     1
Selective dynamics
Direct
  0.1683489964043262  0.3343661772250672  0.3870402562986427   T   T   T
  0.1683377898758792  0.8345587195084366  0.3869849671605473   T   T   T
  0.6683702667919851  0.3344692670235304  0.3872615306290452   T   T   T
  0.6684733461188481  0.8344781787579683  0.3870696364080147   T   T   T
  0.0019736194830626  0.0011282762101829  0.6132236808637712   T   T   T
  0.0028301784621333  0.5017185229569027  0.6118558055310671   T   T   T
  0.5026221842360366  0.0013246931952202  0.6118126942792625   T   T   T
  0.5027602608599214  0.5021043996355898  0.6117759597944078   T   T   T
  0.3348159516927137  0.1676437424132638  0.4996977708393320   T   T   T
  0.3352724205114040  0.6678151349141519  0.4994166223615437   T   T   T
  0.8356661066924217  0.1675843057003281  0.4996578822599796   T   T   T
  0.8356243195895162  0.6682622376564131  0.4996137435913233   T   T   T
  0.1687330512103446  0.3347810824360463  0.4707824810828762   T   T   T
  0.1689549107469223  0.8343892047196904  0.4706064837705435   T   T   T
  0.6685216961175326  0.3342903247664580  0.4707466724458534   T   T   T
  0.6682242314511645  0.8344304874015754  0.4707094333931393   T   T   T
  0.0018613958045954  0.0011349580515801  0.3586210051088785   T   T   T
  0.0014157755180074  0.5011021261312012  0.3587823551869714   T   T   T
  0.5018179703213538  0.0014861251714552  0.3589087683106220   T   T   T
  0.5019782439405368  0.5011774421846964  0.3588181376230372   T   T   T
  0.3334901841975169  0.1672614814603264  0.5837781728122088   T   T   T
  0.3357863285351868  0.6682344232108282  0.5828254984087137   T   T   T
  0.8372221269110619  0.1677477178411219  0.5836956038437957   T   T   T
  0.8368631569320099  0.6695060765609897  0.5838577565305806   T   T   T
  0.0019676130784983  0.0007310487585985  0.5283800249839763   T   T   T
  0.0013838094856074  0.5010414566212523  0.5285380628642019   T   T   T
  0.5024649500568777  0.0020216635500816  0.5285542996092127   T   T   T
  0.5027912934210518  0.5011697686752313  0.5286167451264230   T   T   T
  0.3347783714171765  0.1679772180599508  0.4157968972894572   T   T   T
  0.3350664757094116  0.6675209908318980  0.4156238055337454   T   T   T
  0.8355266471846901  0.1677387223602770  0.4157875335767965   T   T   T
  0.8351535051009897  0.6680777961934453  0.4158271762360908   T   T   T
  0.1723688546768946  0.3406488507833689  0.6405838589489403   T   T   T
  0.1717851657435546  0.8327999084434641  0.6405460235980079   T   T   T
  0.6684093961434877  0.3342782845343902  0.6402570688793900   T   T   T
  0.6670666954617459  0.8338203021483972  0.6403074962209523   T   T   T
  0.0986095492274955  0.0595902011541454  0.7138873103967405   T   T   T
  0.1930531608880394  0.1138106827524761  0.7475407782019104   T   T   T
 
  0.00000000E+00  0.00000000E+00  0.00000000E+00
  0.00000000E+00  0.00000000E+00  0.00000000E+00
  0.00000000E+00  0.00000000E+00  0.00000000E+00
  0.00000000E+00  0.00000000E+00  0.00000000E+00
  0.00000000E+00  0.00000000E+00  0.00000000E+00
  0.00000000E+00  0.00000000E+00  0.00000000E+00
  0.00000000E+00  0.00000000E+00  0.00000000E+00
  0.00000000E+00  0.00000000E+00  0.00000000E+00
  0.00000000E+00  0.00000000E+00  0.00000000E+00
  0.00000000E+00  0.00000000E+00  0.00000000E+00
  0.00000000E+00  0.00000000E+00  0.00000000E+00
  0.00000000E+00  0.00000000E+00  0.00000000E+00
  0.00000000E+00  0.00000000E+00  0.00000000E+00
  0.00000000E+00  0.00000000E+00  0.00000000E+00
  0.00000000E+00  0.00000000E+00  0.00000000E+00
  0.00000000E+00  0.00000000E+00  0.00000000E+00
  0.00000000E+00  0.00000000E+00  0.00000000E+00
  0.00000000E+00  0.00000000E+00  0.00000000E+00
  0.00000000E+00  0.00000000E+00  0.00000000E+00
  0.00000000E+00  0.00000000E+00  0.00000000E+00
  0.00000000E+00  0.00000000E+00  0.00000000E+00
  0.00000000E+00  0.00000000E+00  0.00000000E+00
  0.00000000E+00  0.00000000E+00  0.00000000E+00
  0.00000000E+00  0.00000000E+00  0.00000000E+00
  0.00000000E+00  0.00000000E+00  0.00000000E+00
  0.00000000E+00  0.00000000E+00  0.00000000E+00
  0.00000000E+00  0.00000000E+00  0.00000000E+00
  0.00000000E+00  0.00000000E+00  0.00000000E+00
  0.00000000E+00  0.00000000E+00  0.00000000E+00
  0.00000000E+00  0.00000000E+00  0.00000000E+00
  0.00000000E+00  0.00000000E+00  0.00000000E+00
  0.00000000E+00  0.00000000E+00  0.00000000E+00
  0.00000000E+00  0.00000000E+00  0.00000000E+00
  0.00000000E+00  0.00000000E+00  0.00000000E+00
  0.00000000E+00  0.00000000E+00  0.00000000E+00
  0.00000000E+00  0.00000000E+00  0.00000000E+00
  0.00000000E+00  0.00000000E+00  0.00000000E+00
  0.00000000E+00  0.00000000E+00  0.00000000E+00
