Ce12 C1 O25                             
   1.00000000000000     
     7.7074639999999999    0.0000000000000000    0.0000000000000000
    -3.8537319999999999    6.6748599999999998    0.0000000000000000
     0.0000000000000000    0.0000000000000000   28.3190309999999990
   Ce   O    C    O 
    12    24     1     1
Selective dynamics
Direct
  0.1664380134247547  0.3336656350358388  0.3859877732086263   T   T   T
  0.1664225933835702  0.8336834734355681  0.3860415734148818   T   T   T
  0.6664543075496514  0.3336755702878015  0.3860768008406493   T   T   T
  0.6664826976464657  0.8336900405618307  0.3860448329355939   T   T   T
  0.0001126592949501  0.0008073753865406  0.6112433489913454   T   T   T
  0.0000404531261040  0.5010065963781948  0.6109304543264521   T   T   T
  0.5001536617665556  0.0008975102564720  0.6111188772983603   T   T   T
  0.5004441442185359  0.5010863847093432  0.6109016602038856   T   T   T
  0.3332126332031903  0.1672039048612195  0.4985940321467236   T   T   T
  0.3333002172545044  0.6672584690722279  0.4985546097394305   T   T   T
  0.8333369250532080  0.1672131537360307  0.4985925550272214   T   T   T
  0.8333995254887918  0.6673970400397250  0.4985555293617083   T   T   T
  0.1665919797302640  0.3338230759543126  0.4696148536073227   T   T   T
  0.1668215844651187  0.8340564402448594  0.4696026091385407   T   T   T
  0.6664440751847878  0.3335728771989648  0.4696125495288932   T   T   T
  0.6665348065909730  0.8340518970580347  0.4696036063186029   T   T   T
 -0.0003314903562307  0.0001540115530537  0.3576633688517303   T   T   T
 -0.0002572273344583  0.5004683697580754  0.3576734912950968   T   T   T
  0.4997810558937362  0.0003220266505211  0.3578372291747262   T   T   T
  0.4999054089640894  0.5004581703430747  0.3576841357884151   T   T   T
  0.3332616666642797  0.1678075133918371  0.5823889287424071   T   T   T
  0.3331767390079316  0.6669476932096087  0.5822975652914107   T   T   T
  0.8339301898958389  0.1678480719577556  0.5824011925590484   T   T   T
  0.8334182319872545  0.6673950032310279  0.5824689123562352   T   T   T
 -0.0001167267294721  0.0004426724723103  0.5275711612071320   T   T   T
 -0.0001508632841000  0.5007670027416987  0.5274742549589247   T   T   T
  0.5000614331165439  0.0007187264545585  0.5276012023542446   T   T   T
  0.5003121544520912  0.5007913209085614  0.5274716462556427   T   T   T
  0.3329650090138601  0.1671579370125674  0.4146965883911915   T   T   T
  0.3329890748928418  0.6668186601696828  0.4147212681141754   T   T   T
  0.8334545978108653  0.1672036762211574  0.4147037415987482   T   T   T
  0.8332204594380547  0.6671202319615980  0.4148620992449286   T   T   T
  0.1667542214778480  0.3343201036284949  0.6392699222425074   T   T   T
  0.1673259478134210  0.8343019726254925  0.6391292280150701   T   T   T
  0.6666665134058096  0.3341011646151149  0.6393426186180164   T   T   T
  0.6665677346395504  0.8343541783038128  0.6391087447745953   T   T   T
  0.1632497757777782  0.2686575568076917  0.7456503025403910   T   T   T
  0.2565048160710412  0.4354004917653344  0.7546967315371202   T   T   T
 
  0.00000000E+00  0.00000000E+00  0.00000000E+00
  0.00000000E+00  0.00000000E+00  0.00000000E+00
  0.00000000E+00  0.00000000E+00  0.00000000E+00
  0.00000000E+00  0.00000000E+00  0.00000000E+00
  0.00000000E+00  0.00000000E+00  0.00000000E+00
  0.00000000E+00  0.00000000E+00  0.00000000E+00
  0.00000000E+00  0.00000000E+00  0.00000000E+00
  0.00000000E+00  0.00000000E+00  0.00000000E+00
  0.00000000E+00  0.00000000E+00  0.00000000E+00
  0.00000000E+00  0.00000000E+00  0.00000000E+00
  0.00000000E+00  0.00000000E+00  0.00000000E+00
  0.00000000E+00  0.00000000E+00  0.00000000E+00
  0.00000000E+00  0.00000000E+00  0.00000000E+00
  0.00000000E+00  0.00000000E+00  0.00000000E+00
  0.00000000E+00  0.00000000E+00  0.00000000E+00
  0.00000000E+00  0.00000000E+00  0.00000000E+00
  0.00000000E+00  0.00000000E+00  0.00000000E+00
  0.00000000E+00  0.00000000E+00  0.00000000E+00
  0.00000000E+00  0.00000000E+00  0.00000000E+00
  0.00000000E+00  0.00000000E+00  0.00000000E+00
  0.00000000E+00  0.00000000E+00  0.00000000E+00
  0.00000000E+00  0.00000000E+00  0.00000000E+00
  0.00000000E+00  0.00000000E+00  0.00000000E+00
  0.00000000E+00  0.00000000E+00  0.00000000E+00
  0.00000000E+00  0.00000000E+00  0.00000000E+00
  0.00000000E+00  0.00000000E+00  0.00000000E+00
  0.00000000E+00  0.00000000E+00  0.00000000E+00
  0.00000000E+00  0.00000000E+00  0.00000000E+00
  0.00000000E+00  0.00000000E+00  0.00000000E+00
  0.00000000E+00  0.00000000E+00  0.00000000E+00
  0.00000000E+00  0.00000000E+00  0.00000000E+00
  0.00000000E+00  0.00000000E+00  0.00000000E+00
  0.00000000E+00  0.00000000E+00  0.00000000E+00
  0.00000000E+00  0.00000000E+00  0.00000000E+00
  0.00000000E+00  0.00000000E+00  0.00000000E+00
  0.00000000E+00  0.00000000E+00  0.00000000E+00
  0.00000000E+00  0.00000000E+00  0.00000000E+00
  0.00000000E+00  0.00000000E+00  0.00000000E+00
