Ce12 C1 O25                             
   1.00000000000000     
     7.7074639999999999    0.0000000000000000    0.0000000000000000
    -3.8537319999999999    6.6748599999999998    0.0000000000000000
     0.0000000000000000    0.0000000000000000   28.3190309999999990
   Ce   O    C    O 
    12    24     1     1
Selective dynamics
Direct
  0.1662679492024440  0.3339647872650465  0.3861240025366057   T   T   T
  0.1664612563488364  0.8340612383197320  0.3861678616533374   T   T   T
  0.6661950452890616  0.3337956647079806  0.3861670715724436   T   T   T
  0.6662104038705514  0.8340457011257805  0.3861762909692550   T   T   T
 -0.0003513910614508  0.0012342344943283  0.6108933929081694   T   T   T
 -0.0005090446953589  0.5011155169285236  0.6110637074374036   T   T   T
  0.4996026435130325  0.0010402783815917  0.6110556060922174   T   T   T
  0.4995310611134551  0.5009062507973603  0.6109053402473646   T   T   T
  0.3329605972465094  0.1675138684510736  0.4985507734694473   T   T   T
  0.3327913850315808  0.6674502268933494  0.4985847578968104   T   T   T
  0.8330414380561511  0.1676857936291344  0.4985812422192613   T   T   T
  0.8329540754990452  0.6676425134675712  0.4986000439614286   T   T   T
  0.1664224154285032  0.3342123649429444  0.4696340786732570   T   T   T
  0.1665444656176841  0.8343811170858998  0.4697284221007626   T   T   T
  0.6660004962014203  0.3339527027450996  0.4696894548579881   T   T   T
  0.6661668197299044  0.8341010398216482  0.4696598471023350   T   T   T
 -0.0002518725268820  0.0008568283765375  0.3579347405877255   T   T   T
 -0.0003992338558230  0.5003861447333905  0.3579846333085137   T   T   T
  0.4997009155810170  0.0006933401560368  0.3578814165466561   T   T   T
  0.4994440804986586  0.5003965379035159  0.3579875290277339   T   T   T
  0.3326858289934976  0.1675696567578606  0.5821744279208870   T   T   T
  0.3317322165742194  0.6667878621883366  0.5823466090243914   T   T   T
  0.8339893112322881  0.1686789746125657  0.5823765193174724   T   T   T
  0.8333188641962447  0.6678936302019411  0.5823660661721624   T   T   T
 -0.0005854224415337  0.0009899011638087  0.5275029216674049   T   T   T
 -0.0006862731621325  0.5009869195007536  0.5274294616897581   T   T   T
  0.4999451337391875  0.0007853410440384  0.5276897248965586   T   T   T
  0.4996889638613963  0.5011000970065387  0.5275455376140556   T   T   T
  0.3329568308745477  0.1670924046259593  0.4149004101019695   T   T   T
  0.3330224720959048  0.6676488428020946  0.4148640920709087   T   T   T
  0.8327178751520142  0.1671873904535008  0.4149085000853392   T   T   T
  0.8331085723542802  0.6674217027486541  0.4148769377539374   T   T   T
  0.1671674953914523  0.3342522109579588  0.6395086627945487   T   T   T
  0.1667378450717049  0.8350575721444434  0.6392588476560398   T   T   T
  0.6657872872912879  0.3340523362871063  0.6390118617001089   T   T   T
  0.6656944346252078  0.8344142697407723  0.6388386061954303   T   T   T
  0.1143613309408610  0.1973794770856268  0.7468257044868006   T   T   T
  0.2699637271212333  0.2157092604514969  0.7519948956835099   T   T   T
 
  0.00000000E+00  0.00000000E+00  0.00000000E+00
  0.00000000E+00  0.00000000E+00  0.00000000E+00
  0.00000000E+00  0.00000000E+00  0.00000000E+00
  0.00000000E+00  0.00000000E+00  0.00000000E+00
  0.00000000E+00  0.00000000E+00  0.00000000E+00
  0.00000000E+00  0.00000000E+00  0.00000000E+00
  0.00000000E+00  0.00000000E+00  0.00000000E+00
  0.00000000E+00  0.00000000E+00  0.00000000E+00
  0.00000000E+00  0.00000000E+00  0.00000000E+00
  0.00000000E+00  0.00000000E+00  0.00000000E+00
  0.00000000E+00  0.00000000E+00  0.00000000E+00
  0.00000000E+00  0.00000000E+00  0.00000000E+00
  0.00000000E+00  0.00000000E+00  0.00000000E+00
  0.00000000E+00  0.00000000E+00  0.00000000E+00
  0.00000000E+00  0.00000000E+00  0.00000000E+00
  0.00000000E+00  0.00000000E+00  0.00000000E+00
  0.00000000E+00  0.00000000E+00  0.00000000E+00
  0.00000000E+00  0.00000000E+00  0.00000000E+00
  0.00000000E+00  0.00000000E+00  0.00000000E+00
  0.00000000E+00  0.00000000E+00  0.00000000E+00
  0.00000000E+00  0.00000000E+00  0.00000000E+00
  0.00000000E+00  0.00000000E+00  0.00000000E+00
  0.00000000E+00  0.00000000E+00  0.00000000E+00
  0.00000000E+00  0.00000000E+00  0.00000000E+00
  0.00000000E+00  0.00000000E+00  0.00000000E+00
  0.00000000E+00  0.00000000E+00  0.00000000E+00
  0.00000000E+00  0.00000000E+00  0.00000000E+00
  0.00000000E+00  0.00000000E+00  0.00000000E+00
  0.00000000E+00  0.00000000E+00  0.00000000E+00
  0.00000000E+00  0.00000000E+00  0.00000000E+00
  0.00000000E+00  0.00000000E+00  0.00000000E+00
  0.00000000E+00  0.00000000E+00  0.00000000E+00
  0.00000000E+00  0.00000000E+00  0.00000000E+00
  0.00000000E+00  0.00000000E+00  0.00000000E+00
  0.00000000E+00  0.00000000E+00  0.00000000E+00
  0.00000000E+00  0.00000000E+00  0.00000000E+00
  0.00000000E+00  0.00000000E+00  0.00000000E+00
  0.00000000E+00  0.00000000E+00  0.00000000E+00
