Ce12 C1 O25                             
   1.00000000000000     
     7.7074639999999999    0.0000000000000000    0.0000000000000000
    -3.8537319999999999    6.6748599999999998    0.0000000000000000
     0.0000000000000000    0.0000000000000000   28.3190309999999990
   Ce   O    C    O 
    12    24     1     1
Selective dynamics
Direct
  0.1652830981529760  0.3332304403344876  0.3862926133074636   T   T   T
  0.1650790697873620  0.8331044864720911  0.3861621792643984   T   T   T
  0.6654234033533745  0.3334390462905351  0.3861585413355403   T   T   T
  0.6654030815777295  0.8331458776488679  0.3861638240945225   T   T   T
 -0.0017177936030206 -0.0002863707406904  0.6109807978697310   T   T   T
 -0.0016562922419684  0.4998023854039559  0.6109550266695424   T   T   T
  0.4983428365041137 -0.0001697084793309  0.6110010550049377   T   T   T
  0.4986013639703013  0.4999141742397881  0.6111163973445352   T   T   T
  0.3320419714887330  0.1665123191263817  0.4985566342810279   T   T   T
  0.3320937859962728  0.6667319993201438  0.4985624821749381   T   T   T
  0.8316224664819959  0.1663622816956806  0.4985477056720711   T   T   T
  0.8318730650290759  0.6665187981568088  0.4985225827817891   T   T   T
  0.1653350985642479  0.3332231202587824  0.4700352312573675   T   T   T
  0.1658594587089128  0.8335107897794373  0.4696225320989496   T   T   T
  0.6649434010101283  0.3326442587373111  0.4696159800871809   T   T   T
  0.6649433578356141  0.8334770664054506  0.4696185095844180   T   T   T
 -0.0018394597720323 -0.0006919635003760  0.3579762342588095   T   T   T
 -0.0017434703476532  0.5001154206840197  0.3579650399499675   T   T   T
  0.4987003663953174 -0.0000926354097007  0.3580594892685749   T   T   T
  0.4992472839146448  0.5002876864323041  0.3579798884997371   T   T   T
  0.3318370432537895  0.1667678786154870  0.5824065265371733   T   T   T
  0.3321650150623296  0.6665952106275749  0.5823487426550672   T   T   T
  0.8314184352776576  0.1660834812854097  0.5822522040883983   T   T   T
  0.8316693697960215  0.6665787332039042  0.5826030242982492   T   T   T
 -0.0019092801791615 -0.0011529026396995  0.5274412342021751   T   T   T
 -0.0019141449740419  0.5003554650797312  0.5274154974909609   T   T   T
  0.4983195402475346 -0.0001438895884462  0.5275461295036517   T   T   T
  0.4996513860558576  0.5003731119466601  0.5275186934419701   T   T   T
  0.3315022840214121  0.1670035346921232  0.4147720582481451   T   T   T
  0.3314982845662758  0.6656454262455960  0.4147928618691661   T   T   T
  0.8328634757118282  0.1670309524450670  0.4148118786737707   T   T   T
  0.8319622752933411  0.6665690913646111  0.4149706621598911   T   T   T
  0.1644101355948217  0.3331162320414938  0.6391320953749993   T   T   T
  0.1657446156853385  0.8335267282986888  0.6393256289711724   T   T   T
  0.6649177530959104  0.3326022475002494  0.6392676626336279   T   T   T
  0.6648201258671148  0.8333683166750516  0.6393940797483531   T   T   T
  0.2012402538300346  0.3313408033767419  0.7850465468119326   T   T   T
  0.2964113389878131  0.3402261059738156  0.7531777284857917   T   T   T
 
  0.00000000E+00  0.00000000E+00  0.00000000E+00
  0.00000000E+00  0.00000000E+00  0.00000000E+00
  0.00000000E+00  0.00000000E+00  0.00000000E+00
  0.00000000E+00  0.00000000E+00  0.00000000E+00
  0.00000000E+00  0.00000000E+00  0.00000000E+00
  0.00000000E+00  0.00000000E+00  0.00000000E+00
  0.00000000E+00  0.00000000E+00  0.00000000E+00
  0.00000000E+00  0.00000000E+00  0.00000000E+00
  0.00000000E+00  0.00000000E+00  0.00000000E+00
  0.00000000E+00  0.00000000E+00  0.00000000E+00
  0.00000000E+00  0.00000000E+00  0.00000000E+00
  0.00000000E+00  0.00000000E+00  0.00000000E+00
  0.00000000E+00  0.00000000E+00  0.00000000E+00
  0.00000000E+00  0.00000000E+00  0.00000000E+00
  0.00000000E+00  0.00000000E+00  0.00000000E+00
  0.00000000E+00  0.00000000E+00  0.00000000E+00
  0.00000000E+00  0.00000000E+00  0.00000000E+00
  0.00000000E+00  0.00000000E+00  0.00000000E+00
  0.00000000E+00  0.00000000E+00  0.00000000E+00
  0.00000000E+00  0.00000000E+00  0.00000000E+00
  0.00000000E+00  0.00000000E+00  0.00000000E+00
  0.00000000E+00  0.00000000E+00  0.00000000E+00
  0.00000000E+00  0.00000000E+00  0.00000000E+00
  0.00000000E+00  0.00000000E+00  0.00000000E+00
  0.00000000E+00  0.00000000E+00  0.00000000E+00
  0.00000000E+00  0.00000000E+00  0.00000000E+00
  0.00000000E+00  0.00000000E+00  0.00000000E+00
  0.00000000E+00  0.00000000E+00  0.00000000E+00
  0.00000000E+00  0.00000000E+00  0.00000000E+00
  0.00000000E+00  0.00000000E+00  0.00000000E+00
  0.00000000E+00  0.00000000E+00  0.00000000E+00
  0.00000000E+00  0.00000000E+00  0.00000000E+00
  0.00000000E+00  0.00000000E+00  0.00000000E+00
  0.00000000E+00  0.00000000E+00  0.00000000E+00
  0.00000000E+00  0.00000000E+00  0.00000000E+00
  0.00000000E+00  0.00000000E+00  0.00000000E+00
  0.00000000E+00  0.00000000E+00  0.00000000E+00
  0.00000000E+00  0.00000000E+00  0.00000000E+00
