Ce12 C1 O25                             
   1.00000000000000     
     7.7074639999999999    0.0000000000000000    0.0000000000000000
    -3.8537319999999999    6.6748599999999998    0.0000000000000000
     0.0000000000000000    0.0000000000000000   28.3190309999999990
   Ce   O    C    O 
    12    24     1     1
Selective dynamics
Direct
  0.1674192135599102  0.3333883436870776  0.3865163236832775   T   T   T
  0.1675178059732036  0.8333433407229173  0.3864416768950564   T   T   T
  0.6673897500386108  0.3333116360429172  0.3864654314199720   T   T   T
  0.6673668646462401  0.8334010601997039  0.3864978441993250   T   T   T
  0.0011371737526260  0.0002899979277339  0.6114838335271012   T   T   T
  0.0010024916329309  0.5003164043444649  0.6115211588635819   T   T   T
  0.5013012059106291  0.0007058666427448  0.6117888764690466   T   T   T
  0.5008980985652350  0.5010299270156775  0.6113951787144474   T   T   T
  0.3345675640849740  0.1668251541062874  0.4990063824307538   T   T   T
  0.3343933340000694  0.6669477019010941  0.4989588068215581   T   T   T
  0.8341512194381615  0.1669400940567900  0.4990328466120749   T   T   T
  0.8341270341310243  0.6665717935403358  0.4989878185481496   T   T   T
  0.1677639691804344  0.3337782578054766  0.4701649852588550   T   T   T
  0.1680840125338993  0.8332674779525747  0.4701469206385266   T   T   T
  0.6676276707867715  0.3333623925214492  0.4700225579749507   T   T   T
  0.6671640994638495  0.8332360250969006  0.4701854356856313   T   T   T
  0.0007718229759497 -0.0000185471497317  0.3583516531175066   T   T   T
  0.0010237872131061  0.5002293208726279  0.3582268014994695   T   T   T
  0.5006125961263530 -0.0002178014034052  0.3581992134351908   T   T   T
  0.5005826012846568  0.5001754390604481  0.3582478300636080   T   T   T
  0.3349801261145163  0.1673681552420246  0.5829343511866824   T   T   T
  0.3345193710329527  0.6670103917346523  0.5827118494528292   T   T   T
  0.8342664907973061  0.1673926348514283  0.5829847591961859   T   T   T
  0.8338916897850689  0.6666082123326319  0.5828514634559482   T   T   T
  0.0008382822694162  0.0001757000614681  0.5278770347151895   T   T   T
  0.0005615919039991  0.5000281994824542  0.5278445670545332   T   T   T
  0.5016157240278180  0.0008445027217189  0.5279187553790676   T   T   T
  0.5010962691643078  0.4998065644108124  0.5277596633884779   T   T   T
  0.3343048845234463  0.1667690200048021  0.4151372349102163   T   T   T
  0.3343486041733841  0.6667584657439234  0.4150621755273283   T   T   T
  0.8339410621592682  0.1667171420082020  0.4151958939006699   T   T   T
  0.8340637840229916  0.6666907832689212  0.4152022290142088   T   T   T
  0.1678931660660809  0.3332937401746993  0.6397734874094697   T   T   T
  0.1679570644163577  0.8334777861308792  0.6395342981969200   T   T   T
  0.6687387305124799  0.3346213878531130  0.6400304453339772   T   T   T
  0.6679014510601337  0.8336789504637363  0.6395985201758829   T   T   T
  0.5022110914165409  0.2770579956947842  0.7389819104174778   T   T   T
  0.5475133012552973  0.4414624828756584  0.7447497854268460   T   T   T
 
  0.00000000E+00  0.00000000E+00  0.00000000E+00
  0.00000000E+00  0.00000000E+00  0.00000000E+00
  0.00000000E+00  0.00000000E+00  0.00000000E+00
  0.00000000E+00  0.00000000E+00  0.00000000E+00
  0.00000000E+00  0.00000000E+00  0.00000000E+00
  0.00000000E+00  0.00000000E+00  0.00000000E+00
  0.00000000E+00  0.00000000E+00  0.00000000E+00
  0.00000000E+00  0.00000000E+00  0.00000000E+00
  0.00000000E+00  0.00000000E+00  0.00000000E+00
  0.00000000E+00  0.00000000E+00  0.00000000E+00
  0.00000000E+00  0.00000000E+00  0.00000000E+00
  0.00000000E+00  0.00000000E+00  0.00000000E+00
  0.00000000E+00  0.00000000E+00  0.00000000E+00
  0.00000000E+00  0.00000000E+00  0.00000000E+00
  0.00000000E+00  0.00000000E+00  0.00000000E+00
  0.00000000E+00  0.00000000E+00  0.00000000E+00
  0.00000000E+00  0.00000000E+00  0.00000000E+00
  0.00000000E+00  0.00000000E+00  0.00000000E+00
  0.00000000E+00  0.00000000E+00  0.00000000E+00
  0.00000000E+00  0.00000000E+00  0.00000000E+00
  0.00000000E+00  0.00000000E+00  0.00000000E+00
  0.00000000E+00  0.00000000E+00  0.00000000E+00
  0.00000000E+00  0.00000000E+00  0.00000000E+00
  0.00000000E+00  0.00000000E+00  0.00000000E+00
  0.00000000E+00  0.00000000E+00  0.00000000E+00
  0.00000000E+00  0.00000000E+00  0.00000000E+00
  0.00000000E+00  0.00000000E+00  0.00000000E+00
  0.00000000E+00  0.00000000E+00  0.00000000E+00
  0.00000000E+00  0.00000000E+00  0.00000000E+00
  0.00000000E+00  0.00000000E+00  0.00000000E+00
  0.00000000E+00  0.00000000E+00  0.00000000E+00
  0.00000000E+00  0.00000000E+00  0.00000000E+00
  0.00000000E+00  0.00000000E+00  0.00000000E+00
  0.00000000E+00  0.00000000E+00  0.00000000E+00
  0.00000000E+00  0.00000000E+00  0.00000000E+00
  0.00000000E+00  0.00000000E+00  0.00000000E+00
  0.00000000E+00  0.00000000E+00  0.00000000E+00
  0.00000000E+00  0.00000000E+00  0.00000000E+00
