Ce12 C1 O25                             
   1.00000000000000     
     7.7074639999999999    0.0000000000000000    0.0000000000000000
    -3.8537319999999999    6.6748599999999998    0.0000000000000000
     0.0000000000000000    0.0000000000000000   28.3190309999999990
   Ce   O    C    O 
    12    24     1     1
Selective dynamics
Direct
  0.1591173073968808  0.3329582143207155  0.3868416413452577   T   T   T
  0.1590255958746757  0.8329073153514266  0.3870995210118083   T   T   T
  0.6588644979225614  0.3329022463806628  0.3869440611585221   T   T   T
  0.6588957495452298  0.8326569714706434  0.3869583714614103   T   T   T
 -0.0093234211500318 -0.0017182548488379  0.6119766675790346   T   T   T
 -0.0092082037264801  0.4980223785442895  0.6118656689756229   T   T   T
  0.4913390150356818 -0.0015225705606325  0.6118525740999212   T   T   T
  0.4919292514222086  0.4980771983612628  0.6131282973073402   T   T   T
  0.3251280293898877  0.1661213889586375  0.4996440487056046   T   T   T
  0.3253332094074501  0.6652694108090688  0.4996638041203071   T   T   T
  0.8251699548676007  0.1655861262027401  0.4994430675094430   T   T   T
  0.8246705935090366  0.6654462659920855  0.4996357294131625   T   T   T
  0.1577215064719806  0.3322397923853767  0.4705434384877898   T   T   T
  0.1585303098699697  0.8322572204301701  0.4705492441455401   T   T   T
  0.6591523026852524  0.3321292904973354  0.4706263622487510   T   T   T
  0.6588664486595691  0.8331529471077203  0.4707903869296035   T   T   T
 -0.0073787301185288 -0.0007277330133164  0.3586660615668186   T   T   T
 -0.0074477493444032  0.5000542639554955  0.3587400106391242   T   T   T
  0.4918120801075969 -0.0004973220308881  0.3588056870226458   T   T   T
  0.4924248623600554  0.4995714368402677  0.3584278574865132   T   T   T
  0.3248335746530367  0.1669605361719043  0.5839684382606565   T   T   T
  0.3257411898577434  0.6638685477558174  0.5838064805829255   T   T   T
  0.8245485394976366  0.1644834498066380  0.5828727974402171   T   T   T
  0.8228908679560217  0.6647263321745690  0.5836393222538372   T   T   T
 -0.0074671766845935 -0.0013084455991005  0.5284956035179633   T   T   T
 -0.0077830728813264  0.4996066729299272  0.5285635002924546   T   T   T
  0.4903030546343397 -0.0014667078429423  0.5286070680365188   T   T   T
  0.4913639073992382  0.4982385071926006  0.5281356915632547   T   T   T
  0.3257697840462085  0.1668613259738016  0.4157415003982169   T   T   T
  0.3261263136028993  0.6658187692521559  0.4157052793657388   T   T   T
  0.8255083444617307  0.1658111906045131  0.4154362203148600   T   T   T
  0.8247768434081668  0.6659009620838462  0.4157523039856902   T   T   T
  0.1523851178842174  0.3294763693946894  0.6409885913201531   T   T   T
  0.1574781876452450  0.8313153198359713  0.6403381667184608   T   T   T
  0.6598750567423621  0.3301496691712020  0.6402372129022992   T   T   T
  0.6594290288864937  0.8353398188260568  0.6407169984437200   T   T   T
  0.4376801252224935  0.5100180324331500  0.7134160966570460   T   T   T
  0.3804157034818942  0.5293130626809783  0.7491662267317609   T   T   T
 
  0.00000000E+00  0.00000000E+00  0.00000000E+00
  0.00000000E+00  0.00000000E+00  0.00000000E+00
  0.00000000E+00  0.00000000E+00  0.00000000E+00
  0.00000000E+00  0.00000000E+00  0.00000000E+00
  0.00000000E+00  0.00000000E+00  0.00000000E+00
  0.00000000E+00  0.00000000E+00  0.00000000E+00
  0.00000000E+00  0.00000000E+00  0.00000000E+00
  0.00000000E+00  0.00000000E+00  0.00000000E+00
  0.00000000E+00  0.00000000E+00  0.00000000E+00
  0.00000000E+00  0.00000000E+00  0.00000000E+00
  0.00000000E+00  0.00000000E+00  0.00000000E+00
  0.00000000E+00  0.00000000E+00  0.00000000E+00
  0.00000000E+00  0.00000000E+00  0.00000000E+00
  0.00000000E+00  0.00000000E+00  0.00000000E+00
  0.00000000E+00  0.00000000E+00  0.00000000E+00
  0.00000000E+00  0.00000000E+00  0.00000000E+00
  0.00000000E+00  0.00000000E+00  0.00000000E+00
  0.00000000E+00  0.00000000E+00  0.00000000E+00
  0.00000000E+00  0.00000000E+00  0.00000000E+00
  0.00000000E+00  0.00000000E+00  0.00000000E+00
  0.00000000E+00  0.00000000E+00  0.00000000E+00
  0.00000000E+00  0.00000000E+00  0.00000000E+00
  0.00000000E+00  0.00000000E+00  0.00000000E+00
  0.00000000E+00  0.00000000E+00  0.00000000E+00
  0.00000000E+00  0.00000000E+00  0.00000000E+00
  0.00000000E+00  0.00000000E+00  0.00000000E+00
  0.00000000E+00  0.00000000E+00  0.00000000E+00
  0.00000000E+00  0.00000000E+00  0.00000000E+00
  0.00000000E+00  0.00000000E+00  0.00000000E+00
  0.00000000E+00  0.00000000E+00  0.00000000E+00
  0.00000000E+00  0.00000000E+00  0.00000000E+00
  0.00000000E+00  0.00000000E+00  0.00000000E+00
  0.00000000E+00  0.00000000E+00  0.00000000E+00
  0.00000000E+00  0.00000000E+00  0.00000000E+00
  0.00000000E+00  0.00000000E+00  0.00000000E+00
  0.00000000E+00  0.00000000E+00  0.00000000E+00
  0.00000000E+00  0.00000000E+00  0.00000000E+00
  0.00000000E+00  0.00000000E+00  0.00000000E+00
