Ce12 C1 O25                             
   1.00000000000000     
     7.7074639999999999    0.0000000000000000    0.0000000000000000
    -3.8537319999999999    6.6748599999999998    0.0000000000000000
     0.0000000000000000    0.0000000000000000   28.3190309999999990
   Ce   O    C    O 
    12    24     1     1
Selective dynamics
Direct
  0.1674790180951037  0.3338243614382602  0.3862183753119462   T   T   T
  0.1675443487948375  0.8338900409969816  0.3862487517109475   T   T   T
  0.6674431412815391  0.3337693262917336  0.3862397010822519   T   T   T
  0.6674598379764740  0.8338937217832617  0.3862353330958618   T   T   T
  0.0013735098493464  0.0008873116198945  0.6111035675518441   T   T   T
  0.0012221026977563  0.5009947426622635  0.6111102121048929   T   T   T
  0.5013333637159996  0.0009990323912976  0.6112657352378921   T   T   T
  0.5015358798887238  0.5011259362667166  0.6112692354684330   T   T   T
  0.3345405547258687  0.1675683695530069  0.4987252638383415   T   T   T
  0.3345590110648443  0.6674487732236186  0.4987285228749587   T   T   T
  0.8343896173615839  0.1674164668256622  0.4987045731449695   T   T   T
  0.8345130405104758  0.6674888557363275  0.4986858020758265   T   T   T
  0.1676294299548809  0.3340904943596856  0.4698372057848041   T   T   T
  0.1677323617986241  0.8339705977401388  0.4698469825825546   T   T   T
  0.6677989479142211  0.3339781600917601  0.4698331852883483   T   T   T
  0.6676771306304686  0.8341605754319412  0.4698753156022429   T   T   T
  0.0009413771205869  0.0006932199755346  0.3579552476513718   T   T   T
  0.0008667200730898  0.5004164240960915  0.3579850740195405   T   T   T
  0.5007942870957248  0.0005388325618900  0.3578760426271444   T   T   T
  0.5006482865747148  0.5003711766126007  0.3579643547354138   T   T   T
  0.3345329966854307  0.1681316249608499  0.5826687242996994   T   T   T
  0.3351353456346978  0.6674198838904503  0.5825819633535880   T   T   T
  0.8346434619352429  0.1673130130583671  0.5824947604427994   T   T   T
  0.8344261282366578  0.6678321946388986  0.5825766800264219   T   T   T
  0.0013786755638825  0.0008690571073702  0.5275968548582705   T   T   T
  0.0012114788439386  0.5008970733846471  0.5276559829690298   T   T   T
  0.5009580790002279  0.0009296340048059  0.5276958575282836   T   T   T
  0.5013143697085121  0.5007594061950369  0.5276089984600938   T   T   T
  0.3342472270649290  0.1672076064076551  0.4149208761298581   T   T   T
  0.3343602849229504  0.6673505321158137  0.4148803917632402   T   T   T
  0.8341186836874815  0.1670968634874371  0.4149043154305269   T   T   T
  0.8341406516292178  0.6672903084045431  0.4148837426427202   T   T   T
  0.1673484181047949  0.3346936481064820  0.6395787211215719   T   T   T
  0.1680210443361824  0.8340040150197869  0.6392670033827152   T   T   T
  0.6683344757597206  0.3344728287039485  0.6393047843042506   T   T   T
  0.6683395209841730  0.8345459779485054  0.6396041073418116   T   T   T
  0.0859615579794170  0.1995749307606202  0.7441307232829111   T   T   T
  0.9480996327976846  0.2165289821461202  0.7497270308726207   T   T   T
 
  0.00000000E+00  0.00000000E+00  0.00000000E+00
  0.00000000E+00  0.00000000E+00  0.00000000E+00
  0.00000000E+00  0.00000000E+00  0.00000000E+00
  0.00000000E+00  0.00000000E+00  0.00000000E+00
  0.00000000E+00  0.00000000E+00  0.00000000E+00
  0.00000000E+00  0.00000000E+00  0.00000000E+00
  0.00000000E+00  0.00000000E+00  0.00000000E+00
  0.00000000E+00  0.00000000E+00  0.00000000E+00
  0.00000000E+00  0.00000000E+00  0.00000000E+00
  0.00000000E+00  0.00000000E+00  0.00000000E+00
  0.00000000E+00  0.00000000E+00  0.00000000E+00
  0.00000000E+00  0.00000000E+00  0.00000000E+00
  0.00000000E+00  0.00000000E+00  0.00000000E+00
  0.00000000E+00  0.00000000E+00  0.00000000E+00
  0.00000000E+00  0.00000000E+00  0.00000000E+00
  0.00000000E+00  0.00000000E+00  0.00000000E+00
  0.00000000E+00  0.00000000E+00  0.00000000E+00
  0.00000000E+00  0.00000000E+00  0.00000000E+00
  0.00000000E+00  0.00000000E+00  0.00000000E+00
  0.00000000E+00  0.00000000E+00  0.00000000E+00
  0.00000000E+00  0.00000000E+00  0.00000000E+00
  0.00000000E+00  0.00000000E+00  0.00000000E+00
  0.00000000E+00  0.00000000E+00  0.00000000E+00
  0.00000000E+00  0.00000000E+00  0.00000000E+00
  0.00000000E+00  0.00000000E+00  0.00000000E+00
  0.00000000E+00  0.00000000E+00  0.00000000E+00
  0.00000000E+00  0.00000000E+00  0.00000000E+00
  0.00000000E+00  0.00000000E+00  0.00000000E+00
  0.00000000E+00  0.00000000E+00  0.00000000E+00
  0.00000000E+00  0.00000000E+00  0.00000000E+00
  0.00000000E+00  0.00000000E+00  0.00000000E+00
  0.00000000E+00  0.00000000E+00  0.00000000E+00
  0.00000000E+00  0.00000000E+00  0.00000000E+00
  0.00000000E+00  0.00000000E+00  0.00000000E+00
  0.00000000E+00  0.00000000E+00  0.00000000E+00
  0.00000000E+00  0.00000000E+00  0.00000000E+00
  0.00000000E+00  0.00000000E+00  0.00000000E+00
  0.00000000E+00  0.00000000E+00  0.00000000E+00
