Ce12 C1 O25                             
   1.00000000000000     
     7.7074639999999999    0.0000000000000000    0.0000000000000000
    -3.8537319999999999    6.6748599999999998    0.0000000000000000
     0.0000000000000000    0.0000000000000000   28.3190309999999990
   Ce   O    C    O 
    12    24     1     1
Selective dynamics
Direct
  0.1665546987765413  0.3329272938842631  0.3870065056224333   T   T   T
  0.1665579888153820  0.8330833976532896  0.3870289479215454   T   T   T
  0.6663675992357805  0.3329062916516551  0.3870127846638796   T   T   T
  0.6664794518415744  0.8329984734952621  0.3869844186712151   T   T   T
 -0.0003575943899954 -0.0007705551691779  0.6120408091228303   T   T   T
 -0.0003490047631921  0.4992155331865575  0.6119220398881006   T   T   T
  0.4996879471564156 -0.0007532688884486  0.6120603685461791   T   T   T
  0.4996948059568449  0.4992834486996523  0.6120685371787121   T   T   T
  0.3331141929550492  0.1662372968993812  0.4995679863709269   T   T   T
  0.3331249026973092  0.6661151888595536  0.4995232992544720   T   T   T
  0.8331848088342411  0.1662511562443895  0.4995218411931121   T   T   T
  0.8330333038786021  0.6661773194865844  0.4995196194965792   T   T   T
  0.1664399226068004  0.3330083789649649  0.4705814498703150   T   T   T
  0.1664781013164624  0.8328554430391053  0.4706773973385573   T   T   T
  0.6665516923590730  0.3329498242135069  0.4706083184132134   T   T   T
  0.6664258384052832  0.8329187803330524  0.4706423360235825   T   T   T
 -0.0002734724701393 -0.0004513644494705  0.3587613687279123   T   T   T
 -0.0001802569795962  0.4996720176614569  0.3588439886190918   T   T   T
  0.4998255658038462 -0.0004236469502808  0.3587637989926683   T   T   T
  0.4998867265082658  0.4997452217911015  0.3587181139137346   T   T   T
  0.3330553520655812  0.1659173733172441  0.5835574735513828   T   T   T
  0.3339349571642284  0.6662255042357751  0.5833359988160606   T   T   T
  0.8327623695588745  0.1652360583822418  0.5833404191099705   T   T   T
  0.8323469269706988  0.6664037059155397  0.5833048495030042   T   T   T
  0.0002795835502363 -0.0000941850307127  0.5283899580791668   T   T   T
 -0.0002449247494717  0.4993902204555304  0.5284903045166175   T   T   T
  0.4996682023348116 -0.0002694242761947  0.5284484748691248   T   T   T
  0.4992299711303519  0.4986544101144323  0.5283576334555529   T   T   T
  0.3331471754115299  0.1663122689007760  0.4157414356274742   T   T   T
  0.3333017914263857  0.6663615863456622  0.4156874724411025   T   T   T
  0.8331346089127795  0.1662168738753788  0.4157086952985819   T   T   T
  0.8330670530156365  0.6663994304018972  0.4156650481648117   T   T   T
  0.1660350444438664  0.3330552160952657  0.6402837678411122   T   T   T
  0.1656853975220790  0.8314430150454186  0.6401559810962409   T   T   T
  0.6676712706768532  0.3333747870569707  0.6401322807645512   T   T   T
  0.6663845568754062  0.8329934479790043  0.6406625326150617   T   T   T
  0.3305736043958736  0.1075082775845034  0.7724651952616995   T   T   T
  0.3443858407497352  0.1331472029948721  0.7325345491594204   T   T   T
 
  0.00000000E+00  0.00000000E+00  0.00000000E+00
  0.00000000E+00  0.00000000E+00  0.00000000E+00
  0.00000000E+00  0.00000000E+00  0.00000000E+00
  0.00000000E+00  0.00000000E+00  0.00000000E+00
  0.00000000E+00  0.00000000E+00  0.00000000E+00
  0.00000000E+00  0.00000000E+00  0.00000000E+00
  0.00000000E+00  0.00000000E+00  0.00000000E+00
  0.00000000E+00  0.00000000E+00  0.00000000E+00
  0.00000000E+00  0.00000000E+00  0.00000000E+00
  0.00000000E+00  0.00000000E+00  0.00000000E+00
  0.00000000E+00  0.00000000E+00  0.00000000E+00
  0.00000000E+00  0.00000000E+00  0.00000000E+00
  0.00000000E+00  0.00000000E+00  0.00000000E+00
  0.00000000E+00  0.00000000E+00  0.00000000E+00
  0.00000000E+00  0.00000000E+00  0.00000000E+00
  0.00000000E+00  0.00000000E+00  0.00000000E+00
  0.00000000E+00  0.00000000E+00  0.00000000E+00
  0.00000000E+00  0.00000000E+00  0.00000000E+00
  0.00000000E+00  0.00000000E+00  0.00000000E+00
  0.00000000E+00  0.00000000E+00  0.00000000E+00
  0.00000000E+00  0.00000000E+00  0.00000000E+00
  0.00000000E+00  0.00000000E+00  0.00000000E+00
  0.00000000E+00  0.00000000E+00  0.00000000E+00
  0.00000000E+00  0.00000000E+00  0.00000000E+00
  0.00000000E+00  0.00000000E+00  0.00000000E+00
  0.00000000E+00  0.00000000E+00  0.00000000E+00
  0.00000000E+00  0.00000000E+00  0.00000000E+00
  0.00000000E+00  0.00000000E+00  0.00000000E+00
  0.00000000E+00  0.00000000E+00  0.00000000E+00
  0.00000000E+00  0.00000000E+00  0.00000000E+00
  0.00000000E+00  0.00000000E+00  0.00000000E+00
  0.00000000E+00  0.00000000E+00  0.00000000E+00
  0.00000000E+00  0.00000000E+00  0.00000000E+00
  0.00000000E+00  0.00000000E+00  0.00000000E+00
  0.00000000E+00  0.00000000E+00  0.00000000E+00
  0.00000000E+00  0.00000000E+00  0.00000000E+00
  0.00000000E+00  0.00000000E+00  0.00000000E+00
  0.00000000E+00  0.00000000E+00  0.00000000E+00
