Ce12 C1 O25                             
   1.00000000000000     
     7.7074639999999999    0.0000000000000000    0.0000000000000000
    -3.8537319999999999    6.6748599999999998    0.0000000000000000
     0.0000000000000000    0.0000000000000000   28.3190309999999990
   Ce   O    C    O 
    12    24     1     1
Selective dynamics
Direct
  0.1670705246977686  0.3335183161083877  0.3871934410475487   T   T   T
  0.1670705246977686  0.8335512085893904  0.3871934410475487   T   T   T
  0.6670672033293559  0.3335331016646828  0.3871529825859419   T   T   T
  0.6671267795749880  0.8335628897874988  0.3871928064800211   T   T   T
  0.0010316442889923  0.0005158221444961  0.6123212412278259   T   T   T
  0.0011315722729474  0.5005657861364734  0.6121750053131989   T   T   T
  0.5010786602830506  0.0005545109271572  0.6122267422147073   T   T   T
  0.5010786602830506  0.5005241493558937  0.6122267422147073   T   T   T
  0.3342520138872802  0.1671265069436353  0.4997153089385610   T   T   T
  0.3344857265509282  0.6672433632754590  0.4996831199085136   T   T   T
  0.8341933198479278  0.1671068681413240  0.4997022987960865   T   T   T
  0.8341933198479278  0.6670874517065938  0.4997022987960865   T   T   T
  0.1673268716018974  0.3339121241976686  0.4708179584570321   T   T   T
  0.1673268716018974  0.8334137474042381  0.4708179584570321   T   T   T
  0.6679852974652950  0.3339921487326523  0.4707018746381019   T   T   T
  0.6675854794705387  0.8337922397352741  0.4709182529961844   T   T   T
  0.0006341833186279  0.0003170916593140  0.3588920075456281   T   T   T
  0.0003056027020925  0.5001528013510466  0.3589787853959067   T   T   T
  0.5001937440259122  0.0003826840225003  0.3588924895335499   T   T   T
  0.5001937440259122  0.4998110600034120  0.3588924895335499   T   T   T
  0.3348446963673894  0.1674228481836899  0.5838484594450828   T   T   T
  0.3364444759813396  0.6682227379906650  0.5833854522327353   T   T   T
  0.8332033147013916  0.1661983735035654  0.5835390020846991   T   T   T
  0.8332033147013916  0.6670059411978170  0.5835390020846991   T   T   T
  0.0013727909832821  0.0006863954916411  0.5287805576523558   T   T   T
  0.0010774559772083  0.5005387279886043  0.5287289888404270   T   T   T
  0.5008666151789374  0.0011408214086664  0.5285577025223729   T   T   T
  0.5008666151789374  0.4997257937702711  0.5285577025223729   T   T   T
  0.3337331828257097  0.1668670914128501  0.4159777017414792   T   T   T
  0.3342704431521598  0.6671357215760753  0.4158350468960215   T   T   T
  0.8337168793356573  0.1664996931564396  0.4158472050387071   T   T   T
  0.8337168793356573  0.6672181861792086  0.4158472050387071   T   T   T
  0.1668954676379267  0.3351251298490563  0.6401188457803235   T   T   T
  0.1668954676379267  0.8317693377888798  0.6401188457803235   T   T   T
  0.6693984833345443  0.3346987416672770  0.6408393989906603   T   T   T
  0.6685488584219353  0.8342739292109727  0.6408851833427147   T   T   T
  0.3910565237293393  0.1955282618646732  0.7310771158871618   T   T   T
  0.4674447917450998  0.2337223958725535  0.7672353389914199   T   T   T
 
  0.00000000E+00  0.00000000E+00  0.00000000E+00
  0.00000000E+00  0.00000000E+00  0.00000000E+00
  0.00000000E+00  0.00000000E+00  0.00000000E+00
  0.00000000E+00  0.00000000E+00  0.00000000E+00
  0.00000000E+00  0.00000000E+00  0.00000000E+00
  0.00000000E+00  0.00000000E+00  0.00000000E+00
  0.00000000E+00  0.00000000E+00  0.00000000E+00
  0.00000000E+00  0.00000000E+00  0.00000000E+00
  0.00000000E+00  0.00000000E+00  0.00000000E+00
  0.00000000E+00  0.00000000E+00  0.00000000E+00
  0.00000000E+00  0.00000000E+00  0.00000000E+00
  0.00000000E+00  0.00000000E+00  0.00000000E+00
  0.00000000E+00  0.00000000E+00  0.00000000E+00
  0.00000000E+00  0.00000000E+00  0.00000000E+00
  0.00000000E+00  0.00000000E+00  0.00000000E+00
  0.00000000E+00  0.00000000E+00  0.00000000E+00
  0.00000000E+00  0.00000000E+00  0.00000000E+00
  0.00000000E+00  0.00000000E+00  0.00000000E+00
  0.00000000E+00  0.00000000E+00  0.00000000E+00
  0.00000000E+00  0.00000000E+00  0.00000000E+00
  0.00000000E+00  0.00000000E+00  0.00000000E+00
  0.00000000E+00  0.00000000E+00  0.00000000E+00
  0.00000000E+00  0.00000000E+00  0.00000000E+00
  0.00000000E+00  0.00000000E+00  0.00000000E+00
  0.00000000E+00  0.00000000E+00  0.00000000E+00
  0.00000000E+00  0.00000000E+00  0.00000000E+00
  0.00000000E+00  0.00000000E+00  0.00000000E+00
  0.00000000E+00  0.00000000E+00  0.00000000E+00
  0.00000000E+00  0.00000000E+00  0.00000000E+00
  0.00000000E+00  0.00000000E+00  0.00000000E+00
  0.00000000E+00  0.00000000E+00  0.00000000E+00
  0.00000000E+00  0.00000000E+00  0.00000000E+00
  0.00000000E+00  0.00000000E+00  0.00000000E+00
  0.00000000E+00  0.00000000E+00  0.00000000E+00
  0.00000000E+00  0.00000000E+00  0.00000000E+00
  0.00000000E+00  0.00000000E+00  0.00000000E+00
  0.00000000E+00  0.00000000E+00  0.00000000E+00
  0.00000000E+00  0.00000000E+00  0.00000000E+00
