Ce12 C1 O25                             
   1.00000000000000     
     7.7074639999999999    0.0000000000000000    0.0000000000000000
    -3.8537319999999999    6.6748599999999998    0.0000000000000000
     0.0000000000000000    0.0000000000000000   28.3190309999999990
   Ce   O    C    O 
    12    24     1     1
Selective dynamics
Direct
  0.1658783718764463  0.3329386859382280  0.3865754618862698   T   T   T
  0.1658999160892357  0.8329494580446223  0.3865981074287908   T   T   T
  0.6657813820087719  0.3328687948924151  0.3865671869463159   T   T   T
  0.6657813820087719  0.8329115871163669  0.3865671869463159   T   T   T
 -0.0027899374777236 -0.0015278376915858  0.6116848758631602   T   T   T
 -0.0027899374777236  0.4987379002138624  0.6116848758631602   T   T   T
  0.4975548426064631 -0.0012225786967685  0.6118473584991212   T   T   T
  0.4977272491684484  0.4988636245842243  0.6119701997542000   T   T   T
  0.3318665815751590  0.1658861476839198  0.4992513489797018   T   T   T
  0.3318665815751590  0.6659814338912292  0.4992513489797018   T   T   T
  0.8315307085528356  0.1657658542764130  0.4991912861405857   T   T   T
  0.8316770680298792  0.6658390340149346  0.4992366258130941   T   T   T
  0.1651255973963708  0.3325622986981902  0.4701184392367661   T   T   T
  0.1650653044564621  0.8325321522282361  0.4701540904697122   T   T   T
  0.6654581960184238  0.3327487297561719  0.4702067048506917   T   T   T
  0.6654581960184238  0.8327084662622615  0.4702067048506917   T   T   T
 -0.0005830527707400 -0.0001329529202692  0.3582590076365819   T   T   T
 -0.0005830527707400  0.4995499001495292  0.3582590076365819   T   T   T
  0.4991804861063571 -0.0004097569468214  0.3581368813397703   T   T   T
  0.4988924981578191  0.4994462490789099  0.3581990698275938   T   T   T
  0.3316980219516070  0.1657479104934900  0.5832399337207973   T   T   T
  0.3316980219516070  0.6659511114581071  0.5832399337207973   T   T   T
  0.8297922877897245  0.1648966438948573  0.5829279229505461   T   T   T
  0.8305013717363675  0.6652511858681787  0.5831050201842128   T   T   T
 -0.0015481290892358 -0.0008322245057664  0.5282236879266280   T   T   T
 -0.0015481290892358  0.4992840954165308  0.5282236879266280   T   T   T
  0.4976582615675578 -0.0011708692162211  0.5281149449709260   T   T   T
  0.4980315220882084  0.4990157610441046  0.5282883609757508   T   T   T
  0.3326663592419741  0.1661663748407825  0.4152569139285954   T   T   T
  0.3326663592419741  0.6665009844011820  0.4152569139285954   T   T   T
  0.8319157854427230  0.1659583927213568  0.4151962842894326   T   T   T
  0.8321554800813834  0.6660782400406867  0.4152062208002576   T   T   T
  0.1621584863111525  0.3310787431555811  0.6395543950828086   T   T   T
  0.1642156564794680  0.8321073282397389  0.6402185813001813   T   T   T
  0.6645382987058841  0.3322410157675618  0.6402817379756801   T   T   T
  0.6645382987058841  0.8322962829383319  0.6402817379756801   T   T   T
  0.2603224361300907  0.3801612180650453  0.7755087995164345   T   T   T
  0.3560972296047607  0.4280486148023803  0.7420251538772393   T   T   T
 
  0.00000000E+00  0.00000000E+00  0.00000000E+00
  0.00000000E+00  0.00000000E+00  0.00000000E+00
  0.00000000E+00  0.00000000E+00  0.00000000E+00
  0.00000000E+00  0.00000000E+00  0.00000000E+00
  0.00000000E+00  0.00000000E+00  0.00000000E+00
  0.00000000E+00  0.00000000E+00  0.00000000E+00
  0.00000000E+00  0.00000000E+00  0.00000000E+00
  0.00000000E+00  0.00000000E+00  0.00000000E+00
  0.00000000E+00  0.00000000E+00  0.00000000E+00
  0.00000000E+00  0.00000000E+00  0.00000000E+00
  0.00000000E+00  0.00000000E+00  0.00000000E+00
  0.00000000E+00  0.00000000E+00  0.00000000E+00
  0.00000000E+00  0.00000000E+00  0.00000000E+00
  0.00000000E+00  0.00000000E+00  0.00000000E+00
  0.00000000E+00  0.00000000E+00  0.00000000E+00
  0.00000000E+00  0.00000000E+00  0.00000000E+00
  0.00000000E+00  0.00000000E+00  0.00000000E+00
  0.00000000E+00  0.00000000E+00  0.00000000E+00
  0.00000000E+00  0.00000000E+00  0.00000000E+00
  0.00000000E+00  0.00000000E+00  0.00000000E+00
  0.00000000E+00  0.00000000E+00  0.00000000E+00
  0.00000000E+00  0.00000000E+00  0.00000000E+00
  0.00000000E+00  0.00000000E+00  0.00000000E+00
  0.00000000E+00  0.00000000E+00  0.00000000E+00
  0.00000000E+00  0.00000000E+00  0.00000000E+00
  0.00000000E+00  0.00000000E+00  0.00000000E+00
  0.00000000E+00  0.00000000E+00  0.00000000E+00
  0.00000000E+00  0.00000000E+00  0.00000000E+00
  0.00000000E+00  0.00000000E+00  0.00000000E+00
  0.00000000E+00  0.00000000E+00  0.00000000E+00
  0.00000000E+00  0.00000000E+00  0.00000000E+00
  0.00000000E+00  0.00000000E+00  0.00000000E+00
  0.00000000E+00  0.00000000E+00  0.00000000E+00
  0.00000000E+00  0.00000000E+00  0.00000000E+00
  0.00000000E+00  0.00000000E+00  0.00000000E+00
  0.00000000E+00  0.00000000E+00  0.00000000E+00
  0.00000000E+00  0.00000000E+00  0.00000000E+00
  0.00000000E+00  0.00000000E+00  0.00000000E+00
