Ce12 C1 O25                             
   1.00000000000000     
     7.7074639999999999    0.0000000000000000    0.0000000000000000
    -3.8537319999999999    6.6748599999999998    0.0000000000000000
     0.0000000000000000    0.0000000000000000   28.3190309999999990
   Ce   O    C    O 
    12    24     1     1
Selective dynamics
Direct
  0.1678440680118841  0.3336541187836568  0.3867904116739306   T   T   T
  0.1678349053496964  0.8336297715358132  0.3867975151883052   T   T   T
  0.6678191835884911  0.3336429956247207  0.3867969473045876   T   T   T
  0.6678180037391854  0.8336267538726925  0.3867877301505926   T   T   T
  0.0016043314611479  0.0003587578489408  0.6118611834250426   T   T   T
  0.0016073112652486  0.5003126964104793  0.6117246551336978   T   T   T
  0.5016359659558038  0.0002279292701987  0.6117483802554636   T   T   T
  0.5015420582372978  0.5004163201963587  0.6118422666923241   T   T   T
  0.3346794935608701  0.1670187286363571  0.4993317640205842   T   T   T
  0.3346828502772584  0.6669801399745414  0.4992930661956376   T   T   T
  0.8346582673587748  0.1668992709164270  0.4993068524501298   T   T   T
  0.8346389812217682  0.6670243551745830  0.4993245609925955   T   T   T
  0.1679283585817558  0.3336895881173434  0.4703998327056316   T   T   T
  0.1678996978100265  0.8335500562873657  0.4703907674580814   T   T   T
  0.6679695895009568  0.3336806485878221  0.4704220985649585   T   T   T
  0.6679318386305009  0.8336202794210437  0.4704415916801076   T   T   T
  0.0012056791733811  0.0003258638763540  0.3585527987036321   T   T   T
  0.0012243396307837  0.5003334004335731  0.3585132399693117   T   T   T
  0.5011205025133518  0.0002532639274309  0.3585063004286653   T   T   T
  0.5011185137227820  0.5003059588182625  0.3585015252390339   T   T   T
  0.3350139799221251  0.1671494751448567  0.5832710021482108   T   T   T
  0.3353414228163473  0.6673062832053741  0.5831093872739381   T   T   T
  0.8346447755003885  0.1661249631980110  0.5830561550934706   T   T   T
  0.8347005532339303  0.6675201920017462  0.5831335490589068   T   T   T
  0.0017790160278091  0.0004339645233770  0.5281783872054913   T   T   T
  0.0012892899698369  0.5002813670893205  0.5282669816568017   T   T   T
  0.5012138374921991  0.0004327417944729  0.5281865638098303   T   T   T
  0.5012879745396908  0.5001255994229906  0.5282246544077980   T   T   T
  0.3345562077944105  0.1669920903103451  0.4154803542965395   T   T   T
  0.3345386544204645  0.6669784911496766  0.4154636752349584   T   T   T
  0.8344812882024946  0.1669693096967101  0.4154643921598823   T   T   T
  0.8344793117533693  0.6669464626652500  0.4154651586398345   T   T   T
  0.1677500879911376  0.3340254658449205  0.6399645911670027   T   T   T
  0.1682182519783527  0.8334450569292571  0.6401172190517517   T   T   T
  0.6700125999230413  0.3341740975184109  0.6398076790933331   T   T   T
  0.6679425275305761  0.8334486045181588  0.6403524227543520   T   T   T
  0.5143815782942630  0.2801071164219160  0.7742784710844663   T   T   T
  0.4356047030185990  0.2635438208512387  0.7389618676311185   T   T   T
 
  0.00000000E+00  0.00000000E+00  0.00000000E+00
  0.00000000E+00  0.00000000E+00  0.00000000E+00
  0.00000000E+00  0.00000000E+00  0.00000000E+00
  0.00000000E+00  0.00000000E+00  0.00000000E+00
  0.00000000E+00  0.00000000E+00  0.00000000E+00
  0.00000000E+00  0.00000000E+00  0.00000000E+00
  0.00000000E+00  0.00000000E+00  0.00000000E+00
  0.00000000E+00  0.00000000E+00  0.00000000E+00
  0.00000000E+00  0.00000000E+00  0.00000000E+00
  0.00000000E+00  0.00000000E+00  0.00000000E+00
  0.00000000E+00  0.00000000E+00  0.00000000E+00
  0.00000000E+00  0.00000000E+00  0.00000000E+00
  0.00000000E+00  0.00000000E+00  0.00000000E+00
  0.00000000E+00  0.00000000E+00  0.00000000E+00
  0.00000000E+00  0.00000000E+00  0.00000000E+00
  0.00000000E+00  0.00000000E+00  0.00000000E+00
  0.00000000E+00  0.00000000E+00  0.00000000E+00
  0.00000000E+00  0.00000000E+00  0.00000000E+00
  0.00000000E+00  0.00000000E+00  0.00000000E+00
  0.00000000E+00  0.00000000E+00  0.00000000E+00
  0.00000000E+00  0.00000000E+00  0.00000000E+00
  0.00000000E+00  0.00000000E+00  0.00000000E+00
  0.00000000E+00  0.00000000E+00  0.00000000E+00
  0.00000000E+00  0.00000000E+00  0.00000000E+00
  0.00000000E+00  0.00000000E+00  0.00000000E+00
  0.00000000E+00  0.00000000E+00  0.00000000E+00
  0.00000000E+00  0.00000000E+00  0.00000000E+00
  0.00000000E+00  0.00000000E+00  0.00000000E+00
  0.00000000E+00  0.00000000E+00  0.00000000E+00
  0.00000000E+00  0.00000000E+00  0.00000000E+00
  0.00000000E+00  0.00000000E+00  0.00000000E+00
  0.00000000E+00  0.00000000E+00  0.00000000E+00
  0.00000000E+00  0.00000000E+00  0.00000000E+00
  0.00000000E+00  0.00000000E+00  0.00000000E+00
  0.00000000E+00  0.00000000E+00  0.00000000E+00
  0.00000000E+00  0.00000000E+00  0.00000000E+00
  0.00000000E+00  0.00000000E+00  0.00000000E+00
  0.00000000E+00  0.00000000E+00  0.00000000E+00
