Ce12 C1 O25                             
   1.00000000000000     
     7.7074639999999999    0.0000000000000000    0.0000000000000000
    -3.8537319999999999    6.6748599999999998    0.0000000000000000
     0.0000000000000000    0.0000000000000000   28.3190309999999990
   Ce   O    C    O 
    12    24     1     1
Selective dynamics
Direct
  0.1626146923879795  0.3252480065632566  0.3871856421751054   T   T   T
  0.1627486739320959  0.8254963478642015  0.3874050055258273   T   T   T
  0.6626343141752680  0.3252480065632566  0.3871856421751054   T   T   T
  0.6627823747435181  0.8255637494870456  0.3871926287951044   T   T   T
 -0.0049358874229608 -0.0089615268212968  0.6121003784179736   T   T   T
 -0.0047345554412988  0.4905308891174023  0.6121175640668219   T   T   T
  0.4959743606016639 -0.0089615268212968  0.6121003784179736   T   T   T
  0.4961560552477970  0.4923121104955945  0.6131656714575690   T   T   T
  0.3294978636882239  0.1589967273764383  0.4998123922336034   T   T   T
  0.3293851289690075  0.6581480445239761  0.4997588273582524   T   T   T
  0.8292410855412693  0.1584831710825298  0.4996501160760560   T   T   T
  0.8287619155549785  0.6581480445239761  0.4997588273582524   T   T   T
  0.1617121061975332  0.3245535109855038  0.4708157075913696   T   T   T
  0.1626710134492288  0.8253410268984676  0.4706909945054698   T   T   T
  0.6628424047879609  0.3245535109855038  0.4708157075913696   T   T   T
  0.6630461979859602  0.8260913959719287  0.4707387062516685   T   T   T
 -0.0039412711448855 -0.0079774985997144  0.3589671304169297   T   T   T
 -0.0038669301997331  0.4922661396005336  0.3590442746961480   T   T   T
  0.4959637725451713 -0.0079774985997144  0.3589671304169297   T   T   T
  0.4960137579530230  0.4920275159060455  0.3589318504721559   T   T   T
  0.3304240468510309  0.1608490937020521  0.5839975287175142   T   T   T
  0.3297297638030350  0.6563497331179980  0.5839240696649403   T   T   T
  0.8288270065182234  0.1576550130364359  0.5828352159552322   T   T   T
  0.8266189693149734  0.6563497331179980  0.5839240696649403   T   T   T
 -0.0036799168548898 -0.0090497097255818  0.5286994906324688   T   T   T
 -0.0036924916904610  0.4926150166190779  0.5286119275881453   T   T   T
  0.4946302071293085 -0.0090497097255818  0.5286994906324688   T   T   T
  0.4959653218516220  0.4919306437032426  0.5282178065062237   T   T   T
  0.3292923391584064  0.1585856783168031  0.4159026980151822   T   T   T
  0.3295367864403291  0.6585403977241258  0.4159013362332712   T   T   T
  0.8291442510750369  0.1582895021500653  0.4158178128572492   T   T   T
  0.8290026112838066  0.6585403977241258  0.4159013362332712   T   T   T
  0.1565141672718204  0.3212792627609708  0.6408325589852141   T   T   T
  0.1623187292854043  0.8246364585708172  0.6403434237013448   T   T   T
  0.6647660954891402  0.3212792627609708  0.6408325589852141   T   T   T
  0.6636224498719487  0.8272438997439078  0.6405559687161907   T   T   T
  0.4467419455294228  0.3934838910588462  0.7115974470597323   T   T   T
  0.3979036441200448  0.2958072882400825  0.7447906838517042   T   T   T
 
  0.00000000E+00  0.00000000E+00  0.00000000E+00
  0.00000000E+00  0.00000000E+00  0.00000000E+00
  0.00000000E+00  0.00000000E+00  0.00000000E+00
  0.00000000E+00  0.00000000E+00  0.00000000E+00
  0.00000000E+00  0.00000000E+00  0.00000000E+00
  0.00000000E+00  0.00000000E+00  0.00000000E+00
  0.00000000E+00  0.00000000E+00  0.00000000E+00
  0.00000000E+00  0.00000000E+00  0.00000000E+00
  0.00000000E+00  0.00000000E+00  0.00000000E+00
  0.00000000E+00  0.00000000E+00  0.00000000E+00
  0.00000000E+00  0.00000000E+00  0.00000000E+00
  0.00000000E+00  0.00000000E+00  0.00000000E+00
  0.00000000E+00  0.00000000E+00  0.00000000E+00
  0.00000000E+00  0.00000000E+00  0.00000000E+00
  0.00000000E+00  0.00000000E+00  0.00000000E+00
  0.00000000E+00  0.00000000E+00  0.00000000E+00
  0.00000000E+00  0.00000000E+00  0.00000000E+00
  0.00000000E+00  0.00000000E+00  0.00000000E+00
  0.00000000E+00  0.00000000E+00  0.00000000E+00
  0.00000000E+00  0.00000000E+00  0.00000000E+00
  0.00000000E+00  0.00000000E+00  0.00000000E+00
  0.00000000E+00  0.00000000E+00  0.00000000E+00
  0.00000000E+00  0.00000000E+00  0.00000000E+00
  0.00000000E+00  0.00000000E+00  0.00000000E+00
  0.00000000E+00  0.00000000E+00  0.00000000E+00
  0.00000000E+00  0.00000000E+00  0.00000000E+00
  0.00000000E+00  0.00000000E+00  0.00000000E+00
  0.00000000E+00  0.00000000E+00  0.00000000E+00
  0.00000000E+00  0.00000000E+00  0.00000000E+00
  0.00000000E+00  0.00000000E+00  0.00000000E+00
  0.00000000E+00  0.00000000E+00  0.00000000E+00
  0.00000000E+00  0.00000000E+00  0.00000000E+00
  0.00000000E+00  0.00000000E+00  0.00000000E+00
  0.00000000E+00  0.00000000E+00  0.00000000E+00
  0.00000000E+00  0.00000000E+00  0.00000000E+00
  0.00000000E+00  0.00000000E+00  0.00000000E+00
  0.00000000E+00  0.00000000E+00  0.00000000E+00
  0.00000000E+00  0.00000000E+00  0.00000000E+00
