Ce12 C1 O25                             
   1.00000000000000     
     7.7074639999999999    0.0000000000000000    0.0000000000000000
    -3.8537319999999999    6.6748599999999998    0.0000000000000000
     0.0000000000000000    0.0000000000000000   28.3190309999999990
   Ce   O    C    O 
    12    24     1     1
Selective dynamics
Direct
  0.1657263085631574  0.3326246174373194  0.3870196519142012   T   T   T
  0.1657309038864961  0.8326305317258550  0.3869573976622507   T   T   T
  0.6656874874246695  0.3326544966825136  0.3868627125284497   T   T   T
  0.6656797064845555  0.8325797051045725  0.3868991867806543   T   T   T
  0.9979757858324911  0.9988152495481895  0.6119127442244365   T   T   T
  0.9978283039169563  0.4986338811427183  0.6119566158760925   T   T   T
  0.4979164516011072  0.9986368262618615  0.6119360467554127   T   T   T
  0.4983792888900880  0.4988852113153062  0.6123186851764956   T   T   T
  0.3321086829692464  0.1658739282353314  0.4994775727129489   T   T   T
  0.3320406624478774  0.6656511957237956  0.4994957452766026   T   T   T
  0.8318384134474835  0.1657655386498451  0.4993966189816570   T   T   T
  0.8321089929301089  0.6658914405639242  0.4994584269565945   T   T   T
  0.1654428224331699  0.3324455555549994  0.4707207657279442   T   T   T
  0.1654907073218067  0.8326607113594277  0.4704418788099705   T   T   T
  0.6654049836611954  0.3323412040165316  0.4705803950854424   T   T   T
  0.6655700770914771  0.8327046424761588  0.4705212403507403   T   T   T
  0.9989312844789909  0.9991846811587948  0.3586887108225688   T   T   T
  0.9988738534227344  0.4991984959246965  0.3586723226749103   T   T   T
  0.4990098917642884  0.9992717672597371  0.3585637755667641   T   T   T
  0.4990861213492068  0.4992475962599640  0.3586294535259654   T   T   T
  0.3320986123698468  0.1657251927406863  0.5834073363098043   T   T   T
  0.3316208296558888  0.6652868303521304  0.5835041453566253   T   T   T
  0.8308012020751244  0.1657791666622897  0.5831627473116927   T   T   T
  0.8315084524124391  0.6651583003236997  0.5833967772888865   T   T   T
  0.9986030601644242  0.9989592541105989  0.5284078119270561   T   T   T
  0.9988479274525807  0.4995035524997603  0.5283196467925789   T   T   T
  0.4977133806796921  0.9982417077432606  0.5282341085718374   T   T   T
  0.4987934648920976  0.4992483548686015  0.5284023814829943   T   T   T
  0.3323243583767536  0.1660867365174772  0.4155829891873686   T   T   T
  0.3322742304598940  0.6657639632154473  0.4156113142512310   T   T   T
  0.8324681757975688  0.1660502778990030  0.4155771326672120   T   T   T
  0.8323275698335262  0.6659295207953402  0.4155911931830538   T   T   T
  0.1633395323857447  0.3310328994958819  0.6402505976604509   T   T   T
  0.1645650705229740  0.8320981754820179  0.6403165738482018   T   T   T
  0.6650790891145706  0.3325132740535601  0.6405813363172699   T   T   T
  0.6662932645771971  0.8334910878424181  0.6400805072975119   T   T   T
  0.3184965069270855  0.4928480057679498  0.7714004728046060   T   T   T
  0.3986805423854908  0.5405864232283275  0.7357789803315002   T   T   T
 
  0.00000000E+00  0.00000000E+00  0.00000000E+00
  0.00000000E+00  0.00000000E+00  0.00000000E+00
  0.00000000E+00  0.00000000E+00  0.00000000E+00
  0.00000000E+00  0.00000000E+00  0.00000000E+00
  0.00000000E+00  0.00000000E+00  0.00000000E+00
  0.00000000E+00  0.00000000E+00  0.00000000E+00
  0.00000000E+00  0.00000000E+00  0.00000000E+00
  0.00000000E+00  0.00000000E+00  0.00000000E+00
  0.00000000E+00  0.00000000E+00  0.00000000E+00
  0.00000000E+00  0.00000000E+00  0.00000000E+00
  0.00000000E+00  0.00000000E+00  0.00000000E+00
  0.00000000E+00  0.00000000E+00  0.00000000E+00
  0.00000000E+00  0.00000000E+00  0.00000000E+00
  0.00000000E+00  0.00000000E+00  0.00000000E+00
  0.00000000E+00  0.00000000E+00  0.00000000E+00
  0.00000000E+00  0.00000000E+00  0.00000000E+00
  0.00000000E+00  0.00000000E+00  0.00000000E+00
  0.00000000E+00  0.00000000E+00  0.00000000E+00
  0.00000000E+00  0.00000000E+00  0.00000000E+00
  0.00000000E+00  0.00000000E+00  0.00000000E+00
  0.00000000E+00  0.00000000E+00  0.00000000E+00
  0.00000000E+00  0.00000000E+00  0.00000000E+00
  0.00000000E+00  0.00000000E+00  0.00000000E+00
  0.00000000E+00  0.00000000E+00  0.00000000E+00
  0.00000000E+00  0.00000000E+00  0.00000000E+00
  0.00000000E+00  0.00000000E+00  0.00000000E+00
  0.00000000E+00  0.00000000E+00  0.00000000E+00
  0.00000000E+00  0.00000000E+00  0.00000000E+00
  0.00000000E+00  0.00000000E+00  0.00000000E+00
  0.00000000E+00  0.00000000E+00  0.00000000E+00
  0.00000000E+00  0.00000000E+00  0.00000000E+00
  0.00000000E+00  0.00000000E+00  0.00000000E+00
  0.00000000E+00  0.00000000E+00  0.00000000E+00
  0.00000000E+00  0.00000000E+00  0.00000000E+00
  0.00000000E+00  0.00000000E+00  0.00000000E+00
  0.00000000E+00  0.00000000E+00  0.00000000E+00
  0.00000000E+00  0.00000000E+00  0.00000000E+00
  0.00000000E+00  0.00000000E+00  0.00000000E+00
