Ce12 C1 O25                             
   1.00000000000000     
     7.7074639999999999    0.0000000000000000    0.0000000000000000
    -3.8537319999999999    6.6748599999999998    0.0000000000000000
     0.0000000000000000    0.0000000000000000   28.3190309999999990
   Ce   O    C    O 
    12    24     1     1
Selective dynamics
Direct
  0.1668311846276843  0.3331980079249421  0.3873748965677049   T   T   T
  0.1667440027981988  0.8331347092923794  0.3873769107596412   T   T   T
  0.6666772709970556  0.3332014469143272  0.3873720195669473   T   T   T
  0.6666931219420649  0.8330672532103806  0.3873733579698151   T   T   T
  0.0000459453953115 -0.0007368179971386  0.6120909711677248   T   T   T
 -0.0000105780985650  0.4989468905379028  0.6121888935258113   T   T   T
  0.5003515216189879 -0.0006917423169548  0.6121673992472489   T   T   T
  0.5001474465428387  0.4993229302240252  0.6127077892339162   T   T   T
  0.3337197724076674  0.1665071701854018  0.4998403411032943   T   T   T
  0.3335916561627673  0.6660385617217162  0.4998550208951336   T   T   T
  0.8334566029388485  0.1661615135608956  0.4997871120391508   T   T   T
  0.8332157942121121  0.6659541936909803  0.4998379418199996   T   T   T
  0.1663924283275703  0.3329310590334600  0.4709609824186426   T   T   T
  0.1668364681742314  0.8326025088184317  0.4707933917123676   T   T   T
  0.6671303849168699  0.3327879716501483  0.4709147859876555   T   T   T
  0.6668913260105905  0.8333215304850402  0.4709903522419266   T   T   T
  0.0002427061368921 -0.0002230949532207  0.3590801974175254   T   T   T
  0.0000562069048257  0.5000050581421699  0.3591238334195723   T   T   T
  0.4998663705016542 -0.0001052570074207  0.3591059814516634   T   T   T
  0.5000822135218225  0.4997013557776500  0.3590106329177054   T   T   T
  0.3340062223082622  0.1669686970312730  0.5837842835987890   T   T   T
  0.3341705838239838  0.6655227453919186  0.5835997995815453   T   T   T
  0.8332546931719662  0.1657677984793628  0.5835466833325492   T   T   T
  0.8324647068956381  0.6655059604181762  0.5837249958830921   T   T   T
  0.0006801651409042 -0.0007788827512606  0.5287082677086326   T   T   T
  0.0000939914695178  0.4997317817498377  0.5287801412400422   T   T   T
  0.4996293774511464 -0.0004511291799202  0.5287209150744833   T   T   T
  0.5002574439324908  0.4991865827069588  0.5284597812882131   T   T   T
  0.3334917120906794  0.1667560173793070  0.4160582872514915   T   T   T
  0.3337284057507391  0.6662571421073016  0.4159228019523271   T   T   T
  0.8334302481000394  0.1663296764158675  0.4159121865779007   T   T   T
  0.8330286113234099  0.6663904687139680  0.4160037422818565   T   T   T
  0.1651661262410742  0.3318400873386309  0.6405047818293241   T   T   T
  0.1669477483883793  0.8321424116016091  0.6404275941274108   T   T   T
  0.6675086287028649  0.3319170800623857  0.6407201438595962   T   T   T
  0.6674865543568884  0.8338288516497342  0.6405879765856428   T   T   T
  0.5005777523113460  0.4385902651104727  0.7670483673806545   T   T   T
  0.4951151825012390  0.4682571968792548  0.7276524389829999   T   T   T
 
  0.00000000E+00  0.00000000E+00  0.00000000E+00
  0.00000000E+00  0.00000000E+00  0.00000000E+00
  0.00000000E+00  0.00000000E+00  0.00000000E+00
  0.00000000E+00  0.00000000E+00  0.00000000E+00
  0.00000000E+00  0.00000000E+00  0.00000000E+00
  0.00000000E+00  0.00000000E+00  0.00000000E+00
  0.00000000E+00  0.00000000E+00  0.00000000E+00
  0.00000000E+00  0.00000000E+00  0.00000000E+00
  0.00000000E+00  0.00000000E+00  0.00000000E+00
  0.00000000E+00  0.00000000E+00  0.00000000E+00
  0.00000000E+00  0.00000000E+00  0.00000000E+00
  0.00000000E+00  0.00000000E+00  0.00000000E+00
  0.00000000E+00  0.00000000E+00  0.00000000E+00
  0.00000000E+00  0.00000000E+00  0.00000000E+00
  0.00000000E+00  0.00000000E+00  0.00000000E+00
  0.00000000E+00  0.00000000E+00  0.00000000E+00
  0.00000000E+00  0.00000000E+00  0.00000000E+00
  0.00000000E+00  0.00000000E+00  0.00000000E+00
  0.00000000E+00  0.00000000E+00  0.00000000E+00
  0.00000000E+00  0.00000000E+00  0.00000000E+00
  0.00000000E+00  0.00000000E+00  0.00000000E+00
  0.00000000E+00  0.00000000E+00  0.00000000E+00
  0.00000000E+00  0.00000000E+00  0.00000000E+00
  0.00000000E+00  0.00000000E+00  0.00000000E+00
  0.00000000E+00  0.00000000E+00  0.00000000E+00
  0.00000000E+00  0.00000000E+00  0.00000000E+00
  0.00000000E+00  0.00000000E+00  0.00000000E+00
  0.00000000E+00  0.00000000E+00  0.00000000E+00
  0.00000000E+00  0.00000000E+00  0.00000000E+00
  0.00000000E+00  0.00000000E+00  0.00000000E+00
  0.00000000E+00  0.00000000E+00  0.00000000E+00
  0.00000000E+00  0.00000000E+00  0.00000000E+00
  0.00000000E+00  0.00000000E+00  0.00000000E+00
  0.00000000E+00  0.00000000E+00  0.00000000E+00
  0.00000000E+00  0.00000000E+00  0.00000000E+00
  0.00000000E+00  0.00000000E+00  0.00000000E+00
  0.00000000E+00  0.00000000E+00  0.00000000E+00
  0.00000000E+00  0.00000000E+00  0.00000000E+00
