Ce12 C1 O25                             
   1.00000000000000     
     7.7074639999999999    0.0000000000000000    0.0000000000000000
    -3.8537319999999999    6.6748599999999998    0.0000000000000000
     0.0000000000000000    0.0000000000000000   28.3190309999999990
   Ce   O    C    O 
    12    24     1     1
Selective dynamics
Direct
  0.1660113787976646  0.3320696070855580  0.3869761965146058   T   T   T
  0.1659766431943700  0.8321096474164069  0.3870772454184843   T   T   T
  0.6660114699099735  0.3320785730011416  0.3870099794902714   T   T   T
  0.6660194810996430  0.8320578538824766  0.3869683516421218   T   T   T
 -0.0001749159721170 -0.0010450106162390  0.6118813261640373   T   T   T
 -0.0000865710247775  0.4986327208216436  0.6118633245870806   T   T   T
  0.5000399607733662 -0.0011878181359129  0.6119072367194626   T   T   T
  0.4988463443597635  0.4985143405379557  0.6129514501351604   T   T   T
  0.3331763848282546  0.1659378405232798  0.4995860922019519   T   T   T
  0.3331571578147756  0.6654674366352253  0.4995532386975617   T   T   T
  0.8328736710117618  0.1654745154284532  0.4994442873131626   T   T   T
  0.8324344645338341  0.6653095162356985  0.4996051821253212   T   T   T
  0.1653643243600268  0.3315783183522333  0.4705775993807835   T   T   T
  0.1658542831376210  0.8322535930333854  0.4704832899946481   T   T   T
  0.6666289576223100  0.3320508385113375  0.4707548295999373   T   T   T
  0.6668862748102306  0.8328875436614116  0.4705823808525025   T   T   T
 -0.0005924209339443 -0.0013500669046367  0.3587110538007221   T   T   T
 -0.0005180606664907  0.4988246040446027  0.3587279827061840   T   T   T
  0.4990999324711680 -0.0014787137053800  0.3587128070005104   T   T   T
  0.4991230819482474  0.4987244783655279  0.3586297526621294   T   T   T
  0.3346247764832569  0.1670563929845824  0.5837025648325180   T   T   T
  0.3342610799935891  0.6653877884699144  0.5838679656568484   T   T   T
  0.8324348736359192  0.1654092850104995  0.5827744290072955   T   T   T
  0.8309966544243754  0.6642043990934096  0.5836787952266488   T   T   T
  0.0001471561935055 -0.0017228918194179  0.5285411017029468   T   T   T
  0.0005289128668344  0.5000790919555348  0.5284951771970030   T   T   T
  0.4985089952230158 -0.0019907567368285  0.5284492196272429   T   T   T
  0.4992863021003099  0.4990418276967101  0.5281223181343304   T   T   T
  0.3330366201044510  0.1659120081878095  0.4157067954618812   T   T   T
  0.3329008270763179  0.6652950921735568  0.4157144279516508   T   T   T
  0.8326547250847055  0.1654711982440688  0.4155513825229464   T   T   T
  0.8322465896322414  0.6651300174963561  0.4157038526581179   T   T   T
  0.1628103064592281  0.3302032652645879  0.6402101772750317   T   T   T
  0.1663013585890166  0.8322855274909533  0.6404715525093364   T   T   T
  0.6689400737055647  0.3302547570593483  0.6407650929285216   T   T   T
  0.6691709547704427  0.8366828917334251  0.6406364310143796   T   T   T
  0.5515780329758349  0.5124857069747999  0.7128708071368376   T   T   T
  0.6116079186057090  0.5299045805465185  0.7505243021498231   T   T   T
 
  0.00000000E+00  0.00000000E+00  0.00000000E+00
  0.00000000E+00  0.00000000E+00  0.00000000E+00
  0.00000000E+00  0.00000000E+00  0.00000000E+00
  0.00000000E+00  0.00000000E+00  0.00000000E+00
  0.00000000E+00  0.00000000E+00  0.00000000E+00
  0.00000000E+00  0.00000000E+00  0.00000000E+00
  0.00000000E+00  0.00000000E+00  0.00000000E+00
  0.00000000E+00  0.00000000E+00  0.00000000E+00
  0.00000000E+00  0.00000000E+00  0.00000000E+00
  0.00000000E+00  0.00000000E+00  0.00000000E+00
  0.00000000E+00  0.00000000E+00  0.00000000E+00
  0.00000000E+00  0.00000000E+00  0.00000000E+00
  0.00000000E+00  0.00000000E+00  0.00000000E+00
  0.00000000E+00  0.00000000E+00  0.00000000E+00
  0.00000000E+00  0.00000000E+00  0.00000000E+00
  0.00000000E+00  0.00000000E+00  0.00000000E+00
  0.00000000E+00  0.00000000E+00  0.00000000E+00
  0.00000000E+00  0.00000000E+00  0.00000000E+00
  0.00000000E+00  0.00000000E+00  0.00000000E+00
  0.00000000E+00  0.00000000E+00  0.00000000E+00
  0.00000000E+00  0.00000000E+00  0.00000000E+00
  0.00000000E+00  0.00000000E+00  0.00000000E+00
  0.00000000E+00  0.00000000E+00  0.00000000E+00
  0.00000000E+00  0.00000000E+00  0.00000000E+00
  0.00000000E+00  0.00000000E+00  0.00000000E+00
  0.00000000E+00  0.00000000E+00  0.00000000E+00
  0.00000000E+00  0.00000000E+00  0.00000000E+00
  0.00000000E+00  0.00000000E+00  0.00000000E+00
  0.00000000E+00  0.00000000E+00  0.00000000E+00
  0.00000000E+00  0.00000000E+00  0.00000000E+00
  0.00000000E+00  0.00000000E+00  0.00000000E+00
  0.00000000E+00  0.00000000E+00  0.00000000E+00
  0.00000000E+00  0.00000000E+00  0.00000000E+00
  0.00000000E+00  0.00000000E+00  0.00000000E+00
  0.00000000E+00  0.00000000E+00  0.00000000E+00
  0.00000000E+00  0.00000000E+00  0.00000000E+00
  0.00000000E+00  0.00000000E+00  0.00000000E+00
  0.00000000E+00  0.00000000E+00  0.00000000E+00
