Ce12 C1 O25                             
   1.00000000000000     
     7.7074639999999999    0.0000000000000000    0.0000000000000000
    -3.8537319999999999    6.6748599999999998    0.0000000000000000
     0.0000000000000000    0.0000000000000000   28.3190309999999990
   Ce   O    C    O 
    12    24     1     1
Selective dynamics
Direct
  0.1671608823071614  0.3337726685136341  0.3869252889489511   T   T   T
  0.1673466028919206  0.8338937498837703  0.3869174208512005   T   T   T
  0.6672483904750710  0.3337465651225454  0.3869659290291498   T   T   T
  0.6672641231766040  0.8339367145302778  0.3869463702887744   T   T   T
  0.0014312883462492  0.0015618153140234  0.6124225256617342   T   T   T
  0.0017963428005171  0.5017591290717316  0.6121185038248236   T   T   T
  0.5015533813842699  0.0013818547567034  0.6122470138999196   T   T   T
  0.5016952055201215  0.5016156668377952  0.6121047764699128   T   T   T
  0.3345496574023749  0.1678379738895031  0.4996015245301574   T   T   T
  0.3345215871008109  0.6676715038388175  0.4995524895893835   T   T   T
  0.8346783696699498  0.1677077107089666  0.4996143300541654   T   T   T
  0.8347017156001415  0.6678534162728048  0.4995778406963021   T   T   T
  0.1682119268612636  0.3344869142096797  0.4705240529542831   T   T   T
  0.1677867869059614  0.8342780216271094  0.4707071233105727   T   T   T
  0.6675124565094406  0.3344798666729749  0.4705914952624445   T   T   T
  0.6675541157387049  0.8338696810621704  0.4706231978599912   T   T   T
  0.0004728371667611  0.0006969298000184  0.3586050857023510   T   T   T
  0.0004089986843105  0.5001186992800116  0.3586402435456941   T   T   T
  0.5006825460750602  0.0005578045989664  0.3586052313764809   T   T   T
  0.5004221030820719  0.5003524875338364  0.3587023054864811   T   T   T
  0.3343667560285372  0.1673243729313409  0.5835542288840384   T   T   T
  0.3336154256154112  0.6682714564430152  0.5833075102344859   T   T   T
  0.8353333614347365  0.1681713592224519  0.5837897102014760   T   T   T
  0.8363559665709132  0.6686099544744762  0.5833511079906799   T   T   T
  0.0013222412188975  0.0015703455966703  0.5285761772145046   T   T   T
  0.0009557560047782  0.5004961854495928  0.5284285328001634   T   T   T
  0.5018744551897415  0.0016096553013061  0.5285869608967492   T   T   T
  0.5014197884441741  0.5012364040526068  0.5286524555078211   T   T   T
  0.3338670422761604  0.1668081737927901  0.4156487042281469   T   T   T
  0.3339958898555752  0.6676106070322729  0.4156281340596256   T   T   T
  0.8338463579677515  0.1670842809271432  0.4157144137147784   T   T   T
  0.8344141746176145  0.6675440355618877  0.4156209365846873   T   T   T
  0.1701637352586086  0.3363551717184046  0.6406845211753301   T   T   T
  0.1683700965275791  0.8352255314495062  0.6408869502468874   T   T   T
  0.6684918870319282  0.3353269573116659  0.6404679119325470   T   T   T
  0.6663159844923402  0.8319672614139251  0.6397785312028603   T   T   T
 -0.0680276077614974  0.1604321852432568  0.7357527112742266   T   T   T
  0.0263193715279854  0.2472208885523542  0.7676937525082138   T   T   T
 
  0.00000000E+00  0.00000000E+00  0.00000000E+00
  0.00000000E+00  0.00000000E+00  0.00000000E+00
  0.00000000E+00  0.00000000E+00  0.00000000E+00
  0.00000000E+00  0.00000000E+00  0.00000000E+00
  0.00000000E+00  0.00000000E+00  0.00000000E+00
  0.00000000E+00  0.00000000E+00  0.00000000E+00
  0.00000000E+00  0.00000000E+00  0.00000000E+00
  0.00000000E+00  0.00000000E+00  0.00000000E+00
  0.00000000E+00  0.00000000E+00  0.00000000E+00
  0.00000000E+00  0.00000000E+00  0.00000000E+00
  0.00000000E+00  0.00000000E+00  0.00000000E+00
  0.00000000E+00  0.00000000E+00  0.00000000E+00
  0.00000000E+00  0.00000000E+00  0.00000000E+00
  0.00000000E+00  0.00000000E+00  0.00000000E+00
  0.00000000E+00  0.00000000E+00  0.00000000E+00
  0.00000000E+00  0.00000000E+00  0.00000000E+00
  0.00000000E+00  0.00000000E+00  0.00000000E+00
  0.00000000E+00  0.00000000E+00  0.00000000E+00
  0.00000000E+00  0.00000000E+00  0.00000000E+00
  0.00000000E+00  0.00000000E+00  0.00000000E+00
  0.00000000E+00  0.00000000E+00  0.00000000E+00
  0.00000000E+00  0.00000000E+00  0.00000000E+00
  0.00000000E+00  0.00000000E+00  0.00000000E+00
  0.00000000E+00  0.00000000E+00  0.00000000E+00
  0.00000000E+00  0.00000000E+00  0.00000000E+00
  0.00000000E+00  0.00000000E+00  0.00000000E+00
  0.00000000E+00  0.00000000E+00  0.00000000E+00
  0.00000000E+00  0.00000000E+00  0.00000000E+00
  0.00000000E+00  0.00000000E+00  0.00000000E+00
  0.00000000E+00  0.00000000E+00  0.00000000E+00
  0.00000000E+00  0.00000000E+00  0.00000000E+00
  0.00000000E+00  0.00000000E+00  0.00000000E+00
  0.00000000E+00  0.00000000E+00  0.00000000E+00
  0.00000000E+00  0.00000000E+00  0.00000000E+00
  0.00000000E+00  0.00000000E+00  0.00000000E+00
  0.00000000E+00  0.00000000E+00  0.00000000E+00
  0.00000000E+00  0.00000000E+00  0.00000000E+00
  0.00000000E+00  0.00000000E+00  0.00000000E+00
