Ce12 C1 O25                             
   1.00000000000000     
     7.7074639999999999    0.0000000000000000    0.0000000000000000
    -3.8537319999999999    6.6748599999999998    0.0000000000000000
     0.0000000000000000    0.0000000000000000   28.3190309999999990
   Ce   O    C    O 
    12    24     1     1
Selective dynamics
Direct
  0.1679089539014389  0.3352795061126325  0.3870306783947104   T   T   T
  0.1676226081841442  0.8352442163682983  0.3869662979302999   T   T   T
  0.6673715522111837  0.3352795061126325  0.3870306783947104   T   T   T
  0.6674662919460050  0.8349315838920196  0.3871028152051310   T   T   T
 -0.0005138674549639 -0.0003082602749166  0.6118235999298757   T   T   T
 -0.0004309121346699  0.4991381757306605  0.6119864290841004   T   T   T
  0.5002056071800470 -0.0003082602749166  0.6118235999298757   T   T   T
  0.5005268566529401  0.5010537133058800  0.6129388254750244   T   T   T
  0.3340930371498436  0.1681870742996767  0.4995959939759894   T   T   T
  0.3338369888926631  0.6672063887410323  0.4995434058016355   T   T   T
  0.8337435088979279  0.1674880177958468  0.4994767776063489   T   T   T
  0.8333683998483791  0.6672063887410323  0.4995434058016355   T   T   T
  0.1670821857176608  0.3342348699163628  0.4706381311386075   T   T   T
  0.1672382349360214  0.8344754698720526  0.4704303770287209   T   T   T
  0.6671536841986923  0.3342348699163628  0.4706381311386075   T   T   T
  0.6673758605355212  0.8347507210710535  0.4706754001215480   T   T   T
  0.0012291142987064  0.0013493550107906  0.3587173152450058   T   T   T
  0.0012701052492330  0.5025402104984662  0.3588682881173751   T   T   T
  0.5001202407120848  0.0013493550107906  0.3587173152450058   T   T   T
  0.5009285017443944  0.5018570034887897  0.3586301020594212   T   T   T
  0.3346651047670280  0.1693312095340466  0.5837472696366170   T   T   T
  0.3339376771404584  0.6655685934150238  0.5837322012034596   T   T   T
  0.8331101116413997  0.1662212232827883  0.5827893793597479   T   T   T
  0.8316299162745758  0.6655685934150238  0.5837322012034596   T   T   T
  0.0008160386314288  0.0000826963323750  0.5283805488486369   T   T   T
  0.0005081612163209  0.5010163224326416  0.5284437296063518   T   T   T
  0.4992666577009459  0.0000826963323750  0.5283805488486369   T   T   T
  0.5006004272055662  0.5012008544111330  0.5280551251530334   T   T   T
  0.3345094041617967  0.1690198083235834  0.4156595399403132   T   T   T
  0.3343891191525227  0.6678337126288076  0.4157357175721636   T   T   T
  0.8341893776029181  0.1683797552058267  0.4155890272873119   T   T   T
  0.8334435934762939  0.6678337126288076  0.4157357175721636   T   T   T
  0.1612179673629071  0.3303422152648494  0.6407417098008356   T   T   T
  0.1666906299766265  0.8333802599532625  0.6403921132177627   T   T   T
  0.6691252479019321  0.3303422152648494  0.6407417098008356   T   T   T
  0.6685738553032753  0.8371467106065588  0.6403382056083764   T   T   T
  0.4668002347114777  0.4336004694229557  0.7131245432944150   T   T   T
  0.4333845231052707  0.3667690462105475  0.7502931444222443   T   T   T
 
  0.00000000E+00  0.00000000E+00  0.00000000E+00
  0.00000000E+00  0.00000000E+00  0.00000000E+00
  0.00000000E+00  0.00000000E+00  0.00000000E+00
  0.00000000E+00  0.00000000E+00  0.00000000E+00
  0.00000000E+00  0.00000000E+00  0.00000000E+00
  0.00000000E+00  0.00000000E+00  0.00000000E+00
  0.00000000E+00  0.00000000E+00  0.00000000E+00
  0.00000000E+00  0.00000000E+00  0.00000000E+00
  0.00000000E+00  0.00000000E+00  0.00000000E+00
  0.00000000E+00  0.00000000E+00  0.00000000E+00
  0.00000000E+00  0.00000000E+00  0.00000000E+00
  0.00000000E+00  0.00000000E+00  0.00000000E+00
  0.00000000E+00  0.00000000E+00  0.00000000E+00
  0.00000000E+00  0.00000000E+00  0.00000000E+00
  0.00000000E+00  0.00000000E+00  0.00000000E+00
  0.00000000E+00  0.00000000E+00  0.00000000E+00
  0.00000000E+00  0.00000000E+00  0.00000000E+00
  0.00000000E+00  0.00000000E+00  0.00000000E+00
  0.00000000E+00  0.00000000E+00  0.00000000E+00
  0.00000000E+00  0.00000000E+00  0.00000000E+00
  0.00000000E+00  0.00000000E+00  0.00000000E+00
  0.00000000E+00  0.00000000E+00  0.00000000E+00
  0.00000000E+00  0.00000000E+00  0.00000000E+00
  0.00000000E+00  0.00000000E+00  0.00000000E+00
  0.00000000E+00  0.00000000E+00  0.00000000E+00
  0.00000000E+00  0.00000000E+00  0.00000000E+00
  0.00000000E+00  0.00000000E+00  0.00000000E+00
  0.00000000E+00  0.00000000E+00  0.00000000E+00
  0.00000000E+00  0.00000000E+00  0.00000000E+00
  0.00000000E+00  0.00000000E+00  0.00000000E+00
  0.00000000E+00  0.00000000E+00  0.00000000E+00
  0.00000000E+00  0.00000000E+00  0.00000000E+00
  0.00000000E+00  0.00000000E+00  0.00000000E+00
  0.00000000E+00  0.00000000E+00  0.00000000E+00
  0.00000000E+00  0.00000000E+00  0.00000000E+00
  0.00000000E+00  0.00000000E+00  0.00000000E+00
  0.00000000E+00  0.00000000E+00  0.00000000E+00
  0.00000000E+00  0.00000000E+00  0.00000000E+00
