Ce12 C1 O25                             
   1.00000000000000     
     7.7074639999999999    0.0000000000000000    0.0000000000000000
    -3.8537319999999999    6.6748599999999998    0.0000000000000000
     0.0000000000000000    0.0000000000000000   28.3190309999999990
   Ce   O    C    O 
    12    24     1     1
Selective dynamics
Direct
  0.1743323219724437  0.3365318919659845  0.3871036109358124   T   T   T
  0.1741711863065755  0.8365270689683058  0.3870941092229087   T   T   T
  0.6743478771580907  0.3365913712097467  0.3872350426331355   T   T   T
  0.6743627122978078  0.8365573881274748  0.3870505243650433   T   T   T
  0.0074716183041373  0.0028934031181869  0.6132441070556902   T   T   T
  0.0093207901769979  0.5034692849323501  0.6120056685801765   T   T   T
  0.5092196283485942  0.0032010938236927  0.6119735884105645   T   T   T
  0.5090463980000609  0.5034911622378222  0.6119536125813577   T   T   T
  0.3409274225347780  0.1694683418631948  0.4997952067460644   T   T   T
  0.3416613871774895  0.6699158802267046  0.4995611645327425   T   T   T
  0.8418097598304988  0.1696478602860241  0.4996879511555922   T   T   T
  0.8418086747829219  0.6703086190930304  0.4997092754784151   T   T   T
  0.1751194361741899  0.3368537588878517  0.4707562612761917   T   T   T
  0.1752232038240780  0.8366130886916411  0.4707336967794672   T   T   T
  0.6744772818286550  0.3361586044208230  0.4706162390720579   T   T   T
  0.6740826816710543  0.8363570701875617  0.4706096584476198   T   T   T
  0.0073800462910040  0.0030444509257120  0.3587058588897792   T   T   T
  0.0074806874612809  0.5034033826113513  0.3589258807715622   T   T   T
  0.5075090215230466  0.0031862863482275  0.3589036406526420   T   T   T
  0.5079189771284303  0.5033883580174393  0.3588712942520330   T   T   T
  0.3396154839162869  0.1685566575490444  0.5838627102378491   T   T   T
  0.3420568502839263  0.6700395414506849  0.5829320726078643   T   T   T
  0.8433990273153057  0.1698571666034623  0.5839380455322437   T   T   T
  0.8434190563306035  0.6713797262645351  0.5838364538910856   T   T   T
  0.0075835592117315  0.0028222461286687  0.5283802246680370   T   T   T
  0.0076969892136554  0.5029868913438439  0.5285344391534160   T   T   T
  0.5089643212499699  0.0040583543892688  0.5287474434748729   T   T   T
  0.5090313961996954  0.5028694735494289  0.5285777638655684   T   T   T
  0.3405695118396189  0.1696716653223148  0.4158049980402005   T   T   T
  0.3408729015142239  0.6697230686873468  0.4157454430912873   T   T   T
  0.8414757101293981  0.1698191269269800  0.4157862483878355   T   T   T
  0.8413442913828212  0.6702831074856871  0.4159103400400863   T   T   T
  0.1785155214493695  0.3415789772789321  0.6407063878078491   T   T   T
  0.1783610545253169  0.8343756869360525  0.6408579009685725   T   T   T
  0.6751704148827005  0.3361228735809694  0.6404584621758771   T   T   T
  0.6730771146029697  0.8352950613057258  0.6404464449651917   T   T   T
  0.1003308674557098  0.0351098290466152  0.7124746295379173   T   T   T
  0.1934568157045619  0.0700641802073185  0.7462535997153862   T   T   T
 
  0.00000000E+00  0.00000000E+00  0.00000000E+00
  0.00000000E+00  0.00000000E+00  0.00000000E+00
  0.00000000E+00  0.00000000E+00  0.00000000E+00
  0.00000000E+00  0.00000000E+00  0.00000000E+00
  0.00000000E+00  0.00000000E+00  0.00000000E+00
  0.00000000E+00  0.00000000E+00  0.00000000E+00
  0.00000000E+00  0.00000000E+00  0.00000000E+00
  0.00000000E+00  0.00000000E+00  0.00000000E+00
  0.00000000E+00  0.00000000E+00  0.00000000E+00
  0.00000000E+00  0.00000000E+00  0.00000000E+00
  0.00000000E+00  0.00000000E+00  0.00000000E+00
  0.00000000E+00  0.00000000E+00  0.00000000E+00
  0.00000000E+00  0.00000000E+00  0.00000000E+00
  0.00000000E+00  0.00000000E+00  0.00000000E+00
  0.00000000E+00  0.00000000E+00  0.00000000E+00
  0.00000000E+00  0.00000000E+00  0.00000000E+00
  0.00000000E+00  0.00000000E+00  0.00000000E+00
  0.00000000E+00  0.00000000E+00  0.00000000E+00
  0.00000000E+00  0.00000000E+00  0.00000000E+00
  0.00000000E+00  0.00000000E+00  0.00000000E+00
  0.00000000E+00  0.00000000E+00  0.00000000E+00
  0.00000000E+00  0.00000000E+00  0.00000000E+00
  0.00000000E+00  0.00000000E+00  0.00000000E+00
  0.00000000E+00  0.00000000E+00  0.00000000E+00
  0.00000000E+00  0.00000000E+00  0.00000000E+00
  0.00000000E+00  0.00000000E+00  0.00000000E+00
  0.00000000E+00  0.00000000E+00  0.00000000E+00
  0.00000000E+00  0.00000000E+00  0.00000000E+00
  0.00000000E+00  0.00000000E+00  0.00000000E+00
  0.00000000E+00  0.00000000E+00  0.00000000E+00
  0.00000000E+00  0.00000000E+00  0.00000000E+00
  0.00000000E+00  0.00000000E+00  0.00000000E+00
  0.00000000E+00  0.00000000E+00  0.00000000E+00
  0.00000000E+00  0.00000000E+00  0.00000000E+00
  0.00000000E+00  0.00000000E+00  0.00000000E+00
  0.00000000E+00  0.00000000E+00  0.00000000E+00
  0.00000000E+00  0.00000000E+00  0.00000000E+00
  0.00000000E+00  0.00000000E+00  0.00000000E+00
