Ce12 C1 O25                             
   1.00000000000000     
     7.7074639999999999    0.0000000000000000    0.0000000000000000
    -3.8537319999999999    6.6748599999999998    0.0000000000000000
     0.0000000000000000    0.0000000000000000   28.3190309999999990
   Ce   O    C    O 
    12    24     1     1
Selective dynamics
Direct
  0.1678559316525391  0.3346696074603706  0.3867368185794545   T   T   T
  0.1678764476359362  0.8347377240785309  0.3867075831077882   T   T   T
  0.6678179672654985  0.3345929528573381  0.3867396847060374   T   T   T
  0.6678882513952051  0.8347473838878330  0.3867143592113024   T   T   T
  0.0018513492224178  0.0024510205162856  0.6115795507521995   T   T   T
  0.0018622798119197  0.5021853072568742  0.6113629304710381   T   T   T
  0.5018603551206304  0.0022684129002781  0.6114881305038959   T   T   T
  0.5018511372204577  0.5022395781159640  0.6113442996253873   T   T   T
  0.3348385545093266  0.1681690124525787  0.4991273764389239   T   T   T
  0.3349086297111858  0.6686892587166408  0.4990913674960891   T   T   T
  0.8345660523301135  0.1682215648499746  0.4991251769943570   T   T   T
  0.8348233902467386  0.6684491097391958  0.4991611166854437   T   T   T
  0.1679105097402777  0.3347602129067546  0.4703637172941025   T   T   T
  0.1685772372911783  0.8353133914708900  0.4701647663063378   T   T   T
  0.6676636534766138  0.3341786353917786  0.4701691845853401   T   T   T
  0.6678172230710798  0.8353506402756286  0.4701527844670835   T   T   T
  0.0012285147545640  0.0013414411495884  0.3585318661553941   T   T   T
  0.0013049055520356  0.5014712697717476  0.3585527807781989   T   T   T
  0.5011699393523092  0.0013325205500417  0.3583585201499083   T   T   T
  0.5012328390523759  0.5014498584992838  0.3585641705017398   T   T   T
  0.3347396030532029  0.1688392170200557  0.5827563872281289   T   T   T
  0.3346681349061082  0.6684076689065109  0.5826493035432129   T   T   T
  0.8356271859128322  0.1690544456251387  0.5827826186480296   T   T   T
  0.8353988302525243  0.6689729876594321  0.5831088242725461   T   T   T
  0.0011785714602665  0.0013942854880636  0.5280258947252792   T   T   T
  0.0009097444303094  0.5018458681488276  0.5279014775515608   T   T   T
  0.5018450815714464  0.0021453827028362  0.5280543360084685   T   T   T
  0.5022959918037337  0.5020646021948754  0.5278897702741876   T   T   T
  0.3345813349581480  0.1680299481304551  0.4153627684408408   T   T   T
  0.3346150072441474  0.6682080009675794  0.4152895465960919   T   T   T
  0.8345419105934295  0.1680519377311966  0.4154187261335110   T   T   T
  0.8345100343636864  0.6680097062433328  0.4154815515218184   T   T   T
  0.1688843431127982  0.3360753489039845  0.6396938985741676   T   T   T
  0.1690657966840460  0.8358295027370687  0.6397514399929581   T   T   T
  0.6679860667934072  0.3345757728055480  0.6397108179779842   T   T   T
  0.6675762359657672  0.8354739163384373  0.6395223521441746   T   T   T
  0.0683742820595074  0.2389332513227081  0.7764500630226271   T   T   T
 -0.0105913235777603  0.1419132542263768  0.7442300385343901   T   T   T
 
  0.00000000E+00  0.00000000E+00  0.00000000E+00
  0.00000000E+00  0.00000000E+00  0.00000000E+00
  0.00000000E+00  0.00000000E+00  0.00000000E+00
  0.00000000E+00  0.00000000E+00  0.00000000E+00
  0.00000000E+00  0.00000000E+00  0.00000000E+00
  0.00000000E+00  0.00000000E+00  0.00000000E+00
  0.00000000E+00  0.00000000E+00  0.00000000E+00
  0.00000000E+00  0.00000000E+00  0.00000000E+00
  0.00000000E+00  0.00000000E+00  0.00000000E+00
  0.00000000E+00  0.00000000E+00  0.00000000E+00
  0.00000000E+00  0.00000000E+00  0.00000000E+00
  0.00000000E+00  0.00000000E+00  0.00000000E+00
  0.00000000E+00  0.00000000E+00  0.00000000E+00
  0.00000000E+00  0.00000000E+00  0.00000000E+00
  0.00000000E+00  0.00000000E+00  0.00000000E+00
  0.00000000E+00  0.00000000E+00  0.00000000E+00
  0.00000000E+00  0.00000000E+00  0.00000000E+00
  0.00000000E+00  0.00000000E+00  0.00000000E+00
  0.00000000E+00  0.00000000E+00  0.00000000E+00
  0.00000000E+00  0.00000000E+00  0.00000000E+00
  0.00000000E+00  0.00000000E+00  0.00000000E+00
  0.00000000E+00  0.00000000E+00  0.00000000E+00
  0.00000000E+00  0.00000000E+00  0.00000000E+00
  0.00000000E+00  0.00000000E+00  0.00000000E+00
  0.00000000E+00  0.00000000E+00  0.00000000E+00
  0.00000000E+00  0.00000000E+00  0.00000000E+00
  0.00000000E+00  0.00000000E+00  0.00000000E+00
  0.00000000E+00  0.00000000E+00  0.00000000E+00
  0.00000000E+00  0.00000000E+00  0.00000000E+00
  0.00000000E+00  0.00000000E+00  0.00000000E+00
  0.00000000E+00  0.00000000E+00  0.00000000E+00
  0.00000000E+00  0.00000000E+00  0.00000000E+00
  0.00000000E+00  0.00000000E+00  0.00000000E+00
  0.00000000E+00  0.00000000E+00  0.00000000E+00
  0.00000000E+00  0.00000000E+00  0.00000000E+00
  0.00000000E+00  0.00000000E+00  0.00000000E+00
  0.00000000E+00  0.00000000E+00  0.00000000E+00
  0.00000000E+00  0.00000000E+00  0.00000000E+00
