Ce12 C1 O25                             
   1.00000000000000     
     7.7074639999999999    0.0000000000000000    0.0000000000000000
    -3.8537319999999999    6.6748599999999998    0.0000000000000000
     0.0000000000000000    0.0000000000000000   28.3190309999999990
   Ce   O    C    O 
    12    24     1     1
Selective dynamics
Direct
  0.1680319639351689  0.3346694323462880  0.3869226201650749   T   T   T
  0.1679327245786711  0.8346800548874572  0.3870988295171949   T   T   T
  0.6678427801584851  0.3346588461778199  0.3869193776041307   T   T   T
  0.6679051225036077  0.8345846596648395  0.3869184878258940   T   T   T
 -0.0003279636778966 -0.0009824857106900  0.6119303157780560   T   T   T
  0.0000520191300511  0.4989257342626633  0.6119779378146717   T   T   T
  0.5003299448072196 -0.0011285508459109  0.6119171612849691   T   T   T
  0.5004364272747116  0.5000644916340291  0.6134157580166610   T   T   T
  0.3343991652075751  0.1676996502157735  0.4997095232670081   T   T   T
  0.3342060113986385  0.6667149110168291  0.4996103689859550   T   T   T
  0.8340357928043386  0.1669867215736984  0.4994149083204934   T   T   T
  0.8335961010225866  0.6667211092558344  0.4996214087583628   T   T   T
  0.1667393320330988  0.3335663589012783  0.4706476518756298   T   T   T
  0.1673248238152934  0.8337633170569640  0.4705229288311616   T   T   T
  0.6679688146814838  0.3336560615987590  0.4706793526369306   T   T   T
  0.6679781753585685  0.8347147804664014  0.4706693550061340   T   T   T
  0.0014822797091926  0.0013274860898485  0.3586672439633986   T   T   T
  0.0014682912098981  0.5016730058744923  0.3586981210322517   T   T   T
  0.5010499994424275  0.0013444264115342  0.3586598619911788   T   T   T
  0.5012574710321946  0.5013262942768175  0.3584981384570460   T   T   T
  0.3350445459222773  0.1686559836927178  0.5839584690411644   T   T   T
  0.3341837380372083  0.6650603504735466  0.5838458063605629   T   T   T
  0.8331410355200849  0.1655746902294178  0.5828004246769471   T   T   T
  0.8317881359883450  0.6648321851133830  0.5838435798587788   T   T   T
  0.0014565325912266 -0.0004355093619730  0.5285792453447040   T   T   T
  0.0011439048652720  0.5010276615947925  0.5285523434124356   T   T   T
  0.4991422319792868 -0.0005704183136285  0.5285261143842995   T   T   T
  0.5006469105556725  0.5003800743507451  0.5283120735942334   T   T   T
  0.3347881941793402  0.1683443737267670  0.4157499018797091   T   T   T
  0.3348776362710970  0.6676102475035935  0.4157019410120805   T   T   T
  0.8344335386832681  0.1677215766806548  0.4154673912241167   T   T   T
  0.8338481867437207  0.6675339077767671  0.4156733405549529   T   T   T
  0.1615788503869324  0.3297667696889814  0.6406358831479674   T   T   T
  0.1669055764756551  0.8329984680895763  0.6403527959423763   T   T   T
  0.6693073366174332  0.3296957477587096  0.6408605589406137   T   T   T
  0.6677955680139743  0.8346457159454208  0.6405803225268201   T   T   T
  0.4631516045623687  0.4017674331660907  0.7140640393514880   T   T   T
  0.4275121961815209  0.3082234367297106  0.7477864176145449   T   T   T
 
  0.00000000E+00  0.00000000E+00  0.00000000E+00
  0.00000000E+00  0.00000000E+00  0.00000000E+00
  0.00000000E+00  0.00000000E+00  0.00000000E+00
  0.00000000E+00  0.00000000E+00  0.00000000E+00
  0.00000000E+00  0.00000000E+00  0.00000000E+00
  0.00000000E+00  0.00000000E+00  0.00000000E+00
  0.00000000E+00  0.00000000E+00  0.00000000E+00
  0.00000000E+00  0.00000000E+00  0.00000000E+00
  0.00000000E+00  0.00000000E+00  0.00000000E+00
  0.00000000E+00  0.00000000E+00  0.00000000E+00
  0.00000000E+00  0.00000000E+00  0.00000000E+00
  0.00000000E+00  0.00000000E+00  0.00000000E+00
  0.00000000E+00  0.00000000E+00  0.00000000E+00
  0.00000000E+00  0.00000000E+00  0.00000000E+00
  0.00000000E+00  0.00000000E+00  0.00000000E+00
  0.00000000E+00  0.00000000E+00  0.00000000E+00
  0.00000000E+00  0.00000000E+00  0.00000000E+00
  0.00000000E+00  0.00000000E+00  0.00000000E+00
  0.00000000E+00  0.00000000E+00  0.00000000E+00
  0.00000000E+00  0.00000000E+00  0.00000000E+00
  0.00000000E+00  0.00000000E+00  0.00000000E+00
  0.00000000E+00  0.00000000E+00  0.00000000E+00
  0.00000000E+00  0.00000000E+00  0.00000000E+00
  0.00000000E+00  0.00000000E+00  0.00000000E+00
  0.00000000E+00  0.00000000E+00  0.00000000E+00
  0.00000000E+00  0.00000000E+00  0.00000000E+00
  0.00000000E+00  0.00000000E+00  0.00000000E+00
  0.00000000E+00  0.00000000E+00  0.00000000E+00
  0.00000000E+00  0.00000000E+00  0.00000000E+00
  0.00000000E+00  0.00000000E+00  0.00000000E+00
  0.00000000E+00  0.00000000E+00  0.00000000E+00
  0.00000000E+00  0.00000000E+00  0.00000000E+00
  0.00000000E+00  0.00000000E+00  0.00000000E+00
  0.00000000E+00  0.00000000E+00  0.00000000E+00
  0.00000000E+00  0.00000000E+00  0.00000000E+00
  0.00000000E+00  0.00000000E+00  0.00000000E+00
  0.00000000E+00  0.00000000E+00  0.00000000E+00
  0.00000000E+00  0.00000000E+00  0.00000000E+00
