Ce12 C1 O25                             
   1.00000000000000     
     7.7074639999999999    0.0000000000000000    0.0000000000000000
    -3.8537319999999999    6.6748599999999998    0.0000000000000000
     0.0000000000000000    0.0000000000000000   28.3190309999999990
   Ce   O    C    O 
    12    24     1     1
Selective dynamics
Direct
  0.1679774492288265  0.3341770774105254  0.3863971598784763   T   T   T
  0.1679697907283955  0.8341363320253025  0.3863614571572007   T   T   T
  0.6680379902848493  0.3341838410676028  0.3864232280596404   T   T   T
  0.6679910613913943  0.8341528187231843  0.3863956892871462   T   T   T
  0.0019901879713150  0.0010838464995540  0.6111902809326174   T   T   T
  0.0019906253386587  0.5010566336723310  0.6112182099069634   T   T   T
  0.5020890020779718  0.0010788478416780  0.6111149129051134   T   T   T
  0.5022599708106388  0.5013624424307485  0.6109937233139175   T   T   T
  0.3349418470461135  0.1675771396431925  0.4988014445326449   T   T   T
  0.3349080747983459  0.6676174619311566  0.4987817945987680   T   T   T
  0.8350507952271397  0.1676366612630995  0.4988239480200713   T   T   T
  0.8350934301619631  0.6676892528609749  0.4987961002773560   T   T   T
  0.1682879962768042  0.3341751523692517  0.4699440635575433   T   T   T
  0.1684019388719324  0.8344470648806783  0.4698719076025802   T   T   T
  0.6680900215497513  0.3340932066459855  0.4699623801738374   T   T   T
  0.6682353137397163  0.8343415753890869  0.4698714251959747   T   T   T
  0.0012306188414449  0.0007270981504924  0.3581114931072256   T   T   T
  0.0013812796265835  0.5009029001011682  0.3581284055342026   T   T   T
  0.5014083778264794  0.0007406092797793  0.3581516030487777   T   T   T
  0.5014772571514279  0.5010660672219498  0.3581840018080318   T   T   T
  0.3350952170488539  0.1678037592607872  0.5824204702137209   T   T   T
  0.3348358179228688  0.6674643927190451  0.5825525878840939   T   T   T
  0.8359430252774479  0.1679568871372135  0.5824943343007745   T   T   T
  0.8357179211938121  0.6680312974887298  0.5825304607320998   T   T   T
  0.0015221418015501  0.0007315018450011  0.5275747926651260   T   T   T
  0.0018045535655146  0.5011595007278182  0.5275682209422576   T   T   T
  0.5017815628576179  0.0007507387636852  0.5276430237333418   T   T   T
  0.5019518919021801  0.5013659647530186  0.5275893663638325   T   T   T
  0.3347609117105847  0.1676223806397751  0.4149919645887695   T   T   T
  0.3345619295220885  0.6673647393338196  0.4150365184710130   T   T   T
  0.8348647364634505  0.1677446838769027  0.4150175912260743   T   T   T
  0.8347574636790714  0.6673770980065220  0.4150509510099352   T   T   T
  0.1693979930762029  0.3345241300690506  0.6395243082300945   T   T   T
  0.1691406836112853  0.8351059865607054  0.6395743684081726   T   T   T
  0.6692685779379920  0.3344652294377273  0.6388354883618148   T   T   T
  0.6684990788627972  0.8343203730920051  0.6393179781382977   T   T   T
  0.2946597554264474  0.2367605791280593  0.7503797302743126   T   T   T
  0.4574577091904882  0.2827607277523868  0.7421646155581774   T   T   T
 
  0.00000000E+00  0.00000000E+00  0.00000000E+00
  0.00000000E+00  0.00000000E+00  0.00000000E+00
  0.00000000E+00  0.00000000E+00  0.00000000E+00
  0.00000000E+00  0.00000000E+00  0.00000000E+00
  0.00000000E+00  0.00000000E+00  0.00000000E+00
  0.00000000E+00  0.00000000E+00  0.00000000E+00
  0.00000000E+00  0.00000000E+00  0.00000000E+00
  0.00000000E+00  0.00000000E+00  0.00000000E+00
  0.00000000E+00  0.00000000E+00  0.00000000E+00
  0.00000000E+00  0.00000000E+00  0.00000000E+00
  0.00000000E+00  0.00000000E+00  0.00000000E+00
  0.00000000E+00  0.00000000E+00  0.00000000E+00
  0.00000000E+00  0.00000000E+00  0.00000000E+00
  0.00000000E+00  0.00000000E+00  0.00000000E+00
  0.00000000E+00  0.00000000E+00  0.00000000E+00
  0.00000000E+00  0.00000000E+00  0.00000000E+00
  0.00000000E+00  0.00000000E+00  0.00000000E+00
  0.00000000E+00  0.00000000E+00  0.00000000E+00
  0.00000000E+00  0.00000000E+00  0.00000000E+00
  0.00000000E+00  0.00000000E+00  0.00000000E+00
  0.00000000E+00  0.00000000E+00  0.00000000E+00
  0.00000000E+00  0.00000000E+00  0.00000000E+00
  0.00000000E+00  0.00000000E+00  0.00000000E+00
  0.00000000E+00  0.00000000E+00  0.00000000E+00
  0.00000000E+00  0.00000000E+00  0.00000000E+00
  0.00000000E+00  0.00000000E+00  0.00000000E+00
  0.00000000E+00  0.00000000E+00  0.00000000E+00
  0.00000000E+00  0.00000000E+00  0.00000000E+00
  0.00000000E+00  0.00000000E+00  0.00000000E+00
  0.00000000E+00  0.00000000E+00  0.00000000E+00
  0.00000000E+00  0.00000000E+00  0.00000000E+00
  0.00000000E+00  0.00000000E+00  0.00000000E+00
  0.00000000E+00  0.00000000E+00  0.00000000E+00
  0.00000000E+00  0.00000000E+00  0.00000000E+00
  0.00000000E+00  0.00000000E+00  0.00000000E+00
  0.00000000E+00  0.00000000E+00  0.00000000E+00
  0.00000000E+00  0.00000000E+00  0.00000000E+00
  0.00000000E+00  0.00000000E+00  0.00000000E+00
