Ce12 C1 O25                             
   1.00000000000000     
     7.7074639999999999    0.0000000000000000    0.0000000000000000
    -3.8537319999999999    6.6748599999999998    0.0000000000000000
     0.0000000000000000    0.0000000000000000   28.3190309999999990
   Ce   O    C    O 
    12    24     1     1
Selective dynamics
Direct
  0.1666646191843613  0.3333282383687323  0.3873681976476571   T   T   T
  0.1666646191843613  0.8333353808156387  0.3873681976476571   T   T   T
  0.6666669999999968  0.3333330000000032  0.3874875169716733   T   T   T
  0.6666717616312678  0.8333353808156387  0.3873681976476571   T   T   T
  0.0000000000000000  0.0000000000000000  0.6130227251712964   T   T   T
  0.0002261894278608  0.5001130947139304  0.6123855249054488   T   T   T
  0.4998869052860694 -0.0002261894278608  0.6123855249054488   T   T   T
  0.4998869052860694  0.5001130947139304  0.6123855249054488   T   T   T
  0.3330722720702070  0.1665366360350987  0.4999914884296671   T   T   T
  0.3333330000000032  0.6666669999999968  0.4998594331217926   T   T   T
  0.8334633639649013  0.1665366360350987  0.4999914884296671   T   T   T
  0.8334633639649013  0.6669277279297933  0.4999914884296671   T   T   T
  0.1666044786482908  0.3332079572965912  0.4710872940901007   T   T   T
  0.1666044786482908  0.8333955213517090  0.4710872940901007   T   T   T
  0.6666669999999968  0.3333330000000032  0.4710966078158591   T   T   T
  0.6667920427034087  0.8333955213517090  0.4710872940901007   T   T   T
  0.0000000000000000  0.0000000000000000  0.3590648033187385   T   T   T
 -0.0000288126315508  0.4999855936842246  0.3590924674552734   T   T   T
  0.5000144063157754  0.0000288126315508  0.3590924674552734   T   T   T
  0.5000144063157754  0.4999855936842246  0.3590924674552734   T   T   T
  0.3327233920781624  0.1663621960390764  0.5840652096970558   T   T   T
  0.3333330000000032  0.6666669999999968  0.5834704183822700   T   T   T
  0.8336378039609238  0.1663621960390764  0.5840652096970558   T   T   T
  0.8336378039609238  0.6672766079218376  0.5840652096970558   T   T   T
  0.0000000000000000  0.0000000000000000  0.5290261519096607   T   T   T
 -0.0005542219828249  0.4997228890085876  0.5288249364631135   T   T   T
  0.5002771109914124  0.0005542219828249  0.5288249364631135   T   T   T
  0.5002771109914124  0.4997228890085876  0.5288249364631135   T   T   T
  0.3332526947718227  0.1666268473859065  0.4160745222519702   T   T   T
  0.3333330000000032  0.6666669999999968  0.4160208726509501   T   T   T
  0.8333731526140934  0.1666268473859065  0.4160745222519702   T   T   T
  0.8333731526140934  0.6667473052281772  0.4160745222519702   T   T   T
  0.1676701958081143  0.3353393916162383  0.6407654022449230   T   T   T
  0.1676701958081143  0.8323298041918856  0.6407654022449230   T   T   T
  0.6666669999999968  0.3333330000000032  0.6410363580315115   T   T   T
  0.6646606083837621  0.8323298041918856  0.6407654022449230   T   T   T
  0.0000000000000000  0.0000000000000000  0.7647296245283355   T   T   T
  0.0000000000000000  0.0000000000000000  0.7243363585422800   T   T   T
 
  0.00000000E+00  0.00000000E+00  0.00000000E+00
  0.00000000E+00  0.00000000E+00  0.00000000E+00
  0.00000000E+00  0.00000000E+00  0.00000000E+00
  0.00000000E+00  0.00000000E+00  0.00000000E+00
  0.00000000E+00  0.00000000E+00  0.00000000E+00
  0.00000000E+00  0.00000000E+00  0.00000000E+00
  0.00000000E+00  0.00000000E+00  0.00000000E+00
  0.00000000E+00  0.00000000E+00  0.00000000E+00
  0.00000000E+00  0.00000000E+00  0.00000000E+00
  0.00000000E+00  0.00000000E+00  0.00000000E+00
  0.00000000E+00  0.00000000E+00  0.00000000E+00
  0.00000000E+00  0.00000000E+00  0.00000000E+00
  0.00000000E+00  0.00000000E+00  0.00000000E+00
  0.00000000E+00  0.00000000E+00  0.00000000E+00
  0.00000000E+00  0.00000000E+00  0.00000000E+00
  0.00000000E+00  0.00000000E+00  0.00000000E+00
  0.00000000E+00  0.00000000E+00  0.00000000E+00
  0.00000000E+00  0.00000000E+00  0.00000000E+00
  0.00000000E+00  0.00000000E+00  0.00000000E+00
  0.00000000E+00  0.00000000E+00  0.00000000E+00
  0.00000000E+00  0.00000000E+00  0.00000000E+00
  0.00000000E+00  0.00000000E+00  0.00000000E+00
  0.00000000E+00  0.00000000E+00  0.00000000E+00
  0.00000000E+00  0.00000000E+00  0.00000000E+00
  0.00000000E+00  0.00000000E+00  0.00000000E+00
  0.00000000E+00  0.00000000E+00  0.00000000E+00
  0.00000000E+00  0.00000000E+00  0.00000000E+00
  0.00000000E+00  0.00000000E+00  0.00000000E+00
  0.00000000E+00  0.00000000E+00  0.00000000E+00
  0.00000000E+00  0.00000000E+00  0.00000000E+00
  0.00000000E+00  0.00000000E+00  0.00000000E+00
  0.00000000E+00  0.00000000E+00  0.00000000E+00
  0.00000000E+00  0.00000000E+00  0.00000000E+00
  0.00000000E+00  0.00000000E+00  0.00000000E+00
  0.00000000E+00  0.00000000E+00  0.00000000E+00
  0.00000000E+00  0.00000000E+00  0.00000000E+00
  0.00000000E+00  0.00000000E+00  0.00000000E+00
  0.00000000E+00  0.00000000E+00  0.00000000E+00
