Ce12 C1 O25                             
   1.00000000000000     
     7.7074639999999999    0.0000000000000000    0.0000000000000000
    -3.8537319999999999    6.6748599999999998    0.0000000000000000
     0.0000000000000000    0.0000000000000000   28.3190309999999990
   Ce   O    C    O 
    12    24     1     1
Selective dynamics
Direct
  0.1658174352369799  0.3330577800420838  0.3865228484362134   T   T   T
  0.1658155323423607  0.8330397206349832  0.3865451869866153   T   T   T
  0.6658403628387976  0.3330610501437778  0.3865371417533007   T   T   T
  0.6658175066266201  0.8330528909843776  0.3865538185943818   T   T   T
 -0.0016373594134760 -0.0004609222152758  0.6115684271338824   T   T   T
 -0.0021838360312766  0.4994910521467562  0.6115441855371178   T   T   T
  0.4981670777036266 -0.0004591318936766  0.6114902638915394   T   T   T
  0.4978079314223910  0.4993705428465188  0.6115627393997164   T   T   T
  0.3318854986985300  0.1662193076285565  0.4990642678778308   T   T   T
  0.3319320582715177  0.6662514432239237  0.4990748628688535   T   T   T
  0.8320613444186417  0.1662613492912033  0.4990770275852703   T   T   T
  0.8318636281515199  0.6662144187658458  0.4990913544479886   T   T   T
  0.1655404711274105  0.3331034918040810  0.4701965918412820   T   T   T
  0.1657645791335805  0.8330287289030895  0.4701829421358814   T   T   T
  0.6652044320916790  0.3327510374285032  0.4701166645359006   T   T   T
  0.6650934116659911  0.8328933982228750  0.4701095588094757   T   T   T
 -0.0009205065200776 -0.0003958992387122  0.3582211254383594   T   T   T
 -0.0009277142141375  0.4997384826873489  0.3582108797294943   T   T   T
  0.4992434957863981 -0.0002339426005196  0.3582786952243979   T   T   T
  0.4993254488237135  0.4997891087765770  0.3582434050327097   T   T   T
  0.3306321342199872  0.1659124731647520  0.5827122295569616   T   T   T
  0.3309114266424783  0.6657239892310169  0.5828403859524350   T   T   T
  0.8325404546736777  0.1666707948769408  0.5829221861319971   T   T   T
  0.8319675313005087  0.6663747206641450  0.5830118402130919   T   T   T
 -0.0020092724970323 -0.0009185949146790  0.5278383389802422   T   T   T
 -0.0018310936048950  0.4995692177611293  0.5278985686509904   T   T   T
  0.4988720627430247 -0.0003223972450629  0.5280150607453350   T   T   T
  0.4987993415177044  0.4998421719310218  0.5279843475111851   T   T   T
  0.3321583004482933  0.1663460908281650  0.4151338884760068   T   T   T
  0.3322122291565385  0.6661741119133505  0.4151840695472006   T   T   T
  0.8326109992958116  0.1664400780264313  0.4151735123035167   T   T   T
  0.8325135832620919  0.6664681134133448  0.4152303106642352   T   T   T
  0.1655283520659592  0.3331608112126137  0.6401048647085175   T   T   T
  0.1655819117930094  0.8333545275016601  0.6399089925046161   T   T   T
  0.6633101234820094  0.3318313509973720  0.6393459318011963   T   T   T
  0.6644803413934987  0.8329057811339124  0.6397771510771755   T   T   T
  0.1369231320194245  0.5249669376623852  0.7495488028235714   T   T   T
  0.9873416439271261  0.4897259142591867  0.7329675310915110   T   T   T
 
  0.00000000E+00  0.00000000E+00  0.00000000E+00
  0.00000000E+00  0.00000000E+00  0.00000000E+00
  0.00000000E+00  0.00000000E+00  0.00000000E+00
  0.00000000E+00  0.00000000E+00  0.00000000E+00
  0.00000000E+00  0.00000000E+00  0.00000000E+00
  0.00000000E+00  0.00000000E+00  0.00000000E+00
  0.00000000E+00  0.00000000E+00  0.00000000E+00
  0.00000000E+00  0.00000000E+00  0.00000000E+00
  0.00000000E+00  0.00000000E+00  0.00000000E+00
  0.00000000E+00  0.00000000E+00  0.00000000E+00
  0.00000000E+00  0.00000000E+00  0.00000000E+00
  0.00000000E+00  0.00000000E+00  0.00000000E+00
  0.00000000E+00  0.00000000E+00  0.00000000E+00
  0.00000000E+00  0.00000000E+00  0.00000000E+00
  0.00000000E+00  0.00000000E+00  0.00000000E+00
  0.00000000E+00  0.00000000E+00  0.00000000E+00
  0.00000000E+00  0.00000000E+00  0.00000000E+00
  0.00000000E+00  0.00000000E+00  0.00000000E+00
  0.00000000E+00  0.00000000E+00  0.00000000E+00
  0.00000000E+00  0.00000000E+00  0.00000000E+00
  0.00000000E+00  0.00000000E+00  0.00000000E+00
  0.00000000E+00  0.00000000E+00  0.00000000E+00
  0.00000000E+00  0.00000000E+00  0.00000000E+00
  0.00000000E+00  0.00000000E+00  0.00000000E+00
  0.00000000E+00  0.00000000E+00  0.00000000E+00
  0.00000000E+00  0.00000000E+00  0.00000000E+00
  0.00000000E+00  0.00000000E+00  0.00000000E+00
  0.00000000E+00  0.00000000E+00  0.00000000E+00
  0.00000000E+00  0.00000000E+00  0.00000000E+00
  0.00000000E+00  0.00000000E+00  0.00000000E+00
  0.00000000E+00  0.00000000E+00  0.00000000E+00
  0.00000000E+00  0.00000000E+00  0.00000000E+00
  0.00000000E+00  0.00000000E+00  0.00000000E+00
  0.00000000E+00  0.00000000E+00  0.00000000E+00
  0.00000000E+00  0.00000000E+00  0.00000000E+00
  0.00000000E+00  0.00000000E+00  0.00000000E+00
  0.00000000E+00  0.00000000E+00  0.00000000E+00
  0.00000000E+00  0.00000000E+00  0.00000000E+00
