Ce12 C1 O25                             
   1.00000000000000     
     7.7074639999999999    0.0000000000000000    0.0000000000000000
    -3.8537319999999999    6.6748599999999998    0.0000000000000000
     0.0000000000000000    0.0000000000000000   28.3190309999999990
   Ce   O    C    O 
    12    24     1     1
Selective dynamics
Direct
  0.1659851938622991  0.3348714077972207  0.3870545236628888   T   T   T
  0.1661005212388253  0.8348584356554460  0.3869853497392432   T   T   T
  0.6659679337124272  0.3347555633822530  0.3869909324801439   T   T   T
  0.6659264143094362  0.8348885095247149  0.3869410052910659   T   T   T
 -0.0015931711207062 -0.0004198130780639  0.6119007926941352   T   T   T
 -0.0017336793242922  0.4997115024726256  0.6118122042439851   T   T   T
  0.4993856788601916  0.0008044097303177  0.6131652654247111   T   T   T
  0.4989498999500939  0.4998036554080326  0.6118830253902872   T   T   T
  0.3326203828100827  0.1672536970927130  0.4995664579004011   T   T   T
  0.3327853987083927  0.6681343486525287  0.4996367157830132   T   T   T
  0.8320366404235979  0.1671676892211559  0.4995603736307017   T   T   T
  0.8323624822977582  0.6674291424167885  0.4994159098038138   T   T   T
  0.1658739742137084  0.3341999713812913  0.4704488594169090   T   T   T
  0.1651315179964925  0.8341008037494585  0.4706502947376390   T   T   T
  0.6661010756083189  0.3351308343574042  0.4705855107557686   T   T   T
  0.6662378334107936  0.8339621473120001  0.4705560970128992   T   T   T
 -0.0005202177601360  0.0018968084382181  0.3587586676920683   T   T   T
 -0.0005237203795453  0.5013434812725268  0.3586674328395386   T   T   T
  0.4994826456893307  0.0015929616859952  0.3585960684847215   T   T   T
  0.4990641957153760  0.5014197809965375  0.3587201646319457   T   T   T
  0.3325749139896106  0.1653759982841014  0.5837373164840689   T   T   T
  0.3329881959649773  0.6693098977654722  0.5838512327436611   T   T   T
  0.8306520236796949  0.1659081359322568  0.5837400531638990   T   T   T
  0.8322567245373939  0.6664124299144509  0.5827373404445234   T   T   T
 -0.0006981061743043  0.0014271389120872  0.5285030459306673   T   T   T
 -0.0004308219029449  0.4998853430987747  0.5284401700593434   T   T   T
  0.4994960554742618  0.0009954936541598  0.5281105542223242   T   T   T
  0.4977853404634131  0.5001688299065674  0.5285189433660004   T   T   T
  0.3330580474910601  0.1678104603647433  0.4156448370785140   T   T   T
  0.3329342807310233  0.6687013697622313  0.4157007416730124   T   T   T
  0.8319698908145716  0.1678147801490256  0.4157085643818914   T   T   T
  0.8325960266822999  0.6679697889254786  0.4155113324840025   T   T   T
  0.1656048246762026  0.3335049217441191  0.6403232393818269   T   T   T
  0.1597652986255267  0.8303786468355384  0.6408962164892432   T   T   T
  0.6665864719764427  0.3359820711252703  0.6405153858565386   T   T   T
  0.6678918043079481  0.8306999465980213  0.6404317392532848   T   T   T
  0.4453444545425843 -0.0664027396744991  0.7132191379982479   T   T   T
  0.3933275738977901  0.8700621492330374  0.7503044973730661   T   T   T
 
  0.00000000E+00  0.00000000E+00  0.00000000E+00
  0.00000000E+00  0.00000000E+00  0.00000000E+00
  0.00000000E+00  0.00000000E+00  0.00000000E+00
  0.00000000E+00  0.00000000E+00  0.00000000E+00
  0.00000000E+00  0.00000000E+00  0.00000000E+00
  0.00000000E+00  0.00000000E+00  0.00000000E+00
  0.00000000E+00  0.00000000E+00  0.00000000E+00
  0.00000000E+00  0.00000000E+00  0.00000000E+00
  0.00000000E+00  0.00000000E+00  0.00000000E+00
  0.00000000E+00  0.00000000E+00  0.00000000E+00
  0.00000000E+00  0.00000000E+00  0.00000000E+00
  0.00000000E+00  0.00000000E+00  0.00000000E+00
  0.00000000E+00  0.00000000E+00  0.00000000E+00
  0.00000000E+00  0.00000000E+00  0.00000000E+00
  0.00000000E+00  0.00000000E+00  0.00000000E+00
  0.00000000E+00  0.00000000E+00  0.00000000E+00
  0.00000000E+00  0.00000000E+00  0.00000000E+00
  0.00000000E+00  0.00000000E+00  0.00000000E+00
  0.00000000E+00  0.00000000E+00  0.00000000E+00
  0.00000000E+00  0.00000000E+00  0.00000000E+00
  0.00000000E+00  0.00000000E+00  0.00000000E+00
  0.00000000E+00  0.00000000E+00  0.00000000E+00
  0.00000000E+00  0.00000000E+00  0.00000000E+00
  0.00000000E+00  0.00000000E+00  0.00000000E+00
  0.00000000E+00  0.00000000E+00  0.00000000E+00
  0.00000000E+00  0.00000000E+00  0.00000000E+00
  0.00000000E+00  0.00000000E+00  0.00000000E+00
  0.00000000E+00  0.00000000E+00  0.00000000E+00
  0.00000000E+00  0.00000000E+00  0.00000000E+00
  0.00000000E+00  0.00000000E+00  0.00000000E+00
  0.00000000E+00  0.00000000E+00  0.00000000E+00
  0.00000000E+00  0.00000000E+00  0.00000000E+00
  0.00000000E+00  0.00000000E+00  0.00000000E+00
  0.00000000E+00  0.00000000E+00  0.00000000E+00
  0.00000000E+00  0.00000000E+00  0.00000000E+00
  0.00000000E+00  0.00000000E+00  0.00000000E+00
  0.00000000E+00  0.00000000E+00  0.00000000E+00
  0.00000000E+00  0.00000000E+00  0.00000000E+00
