Ce12 C1 O25                             
   1.00000000000000     
     7.7074639999999999    0.0000000000000000    0.0000000000000000
    -3.8537319999999999    6.6748599999999998    0.0000000000000000
     0.0000000000000000    0.0000000000000000   28.3190309999999990
   Ce   O    C    O 
    12    24     1     1
Selective dynamics
Direct
  0.1669276701651710  0.3321944446305246  0.3868463592899065   T   T   T
  0.1669489711251426  0.8321999206933302  0.3867508874597871   T   T   T
  0.6672117209729123  0.3323381792155314  0.3870151944240054   T   T   T
  0.6672326680405859  0.8323912124273654  0.3866894282108765   T   T   T
 -0.0011156982511007 -0.0016178962712265  0.6132435281569182   T   T   T
 -0.0009151242297076  0.4990621053977421  0.6115924806082818   T   T   T
  0.4985453012096420 -0.0015146698343146  0.6117177734479897   T   T   T
  0.4987607001035012  0.4989382477194240  0.6116891114279466   T   T   T
  0.3319486826740394  0.1647770334727891  0.4994365291358293   T   T   T
  0.3328787365804787  0.6653096711692991  0.4991664310964794   T   T   T
  0.8328593688132488  0.1646875590793190  0.4994526112658927   T   T   T
  0.8328079959341471  0.6657316114546711  0.4993689870030899   T   T   T
  0.1665451313763096  0.3325060843460234  0.4705770114526835   T   T   T
  0.1665105986705106  0.8315099728527997  0.4704568906727786   T   T   T
  0.6661515464411399  0.3319209877049550  0.4704528425689828   T   T   T
  0.6654641101551854  0.8314664819367399  0.4702607074639262   T   T   T
  0.0001808825192300 -0.0010360581346425  0.3583104430963899   T   T   T
  0.0002657161174348  0.4987607777578628  0.3584398954139103   T   T   T
  0.5010126965677364 -0.0005899801036302  0.3585337206500818   T   T   T
  0.5008290995547593  0.4989410436853201  0.3585626338329415   T   T   T
  0.3303225441969448  0.1645701955066864  0.5835155555216791   T   T   T
  0.3334639594543845  0.6661182799745452  0.5826915392062688   T   T   T
  0.8327840485565208  0.1638114685361517  0.5835855475717785   T   T   T
  0.8323406807355838  0.6670869750929818  0.5836178565621918   T   T   T
 -0.0013815463828655 -0.0020174010215526  0.5280549530985619   T   T   T
 -0.0015996257273906  0.4982233697044995  0.5284634080463284   T   T   T
  0.4997110169490395 -0.0005819883961236  0.5282927685093117   T   T   T
  0.4997261893756822  0.4982511753755122  0.5283241917891395   T   T   T
  0.3327966782924545  0.1651525633852765  0.4155388673916236   T   T   T
  0.3331230333888002  0.6652505562408039  0.4152733129223258   T   T   T
  0.8341314397015349  0.1657045361621914  0.4156037424143874   T   T   T
  0.8340899273178142  0.6659235350599587  0.4154757927272603   T   T   T
  0.1672902680802787  0.3366876405049208  0.6402010328843156   T   T   T
  0.1666271703703861  0.8301079070733922  0.6401308399955145   T   T   T
  0.6652237923020636  0.3318308233307911  0.6400520360625499   T   T   T
  0.6618418659519706  0.8305985302322316  0.6409550861225762   T   T   T
 -0.0420830385373709  0.0149961147053710  0.7159661221005187   T   T   T
  0.9123728214338119  0.0303089893324800  0.7534838803949697   T   T   T
 
  0.00000000E+00  0.00000000E+00  0.00000000E+00
  0.00000000E+00  0.00000000E+00  0.00000000E+00
  0.00000000E+00  0.00000000E+00  0.00000000E+00
  0.00000000E+00  0.00000000E+00  0.00000000E+00
  0.00000000E+00  0.00000000E+00  0.00000000E+00
  0.00000000E+00  0.00000000E+00  0.00000000E+00
  0.00000000E+00  0.00000000E+00  0.00000000E+00
  0.00000000E+00  0.00000000E+00  0.00000000E+00
  0.00000000E+00  0.00000000E+00  0.00000000E+00
  0.00000000E+00  0.00000000E+00  0.00000000E+00
  0.00000000E+00  0.00000000E+00  0.00000000E+00
  0.00000000E+00  0.00000000E+00  0.00000000E+00
  0.00000000E+00  0.00000000E+00  0.00000000E+00
  0.00000000E+00  0.00000000E+00  0.00000000E+00
  0.00000000E+00  0.00000000E+00  0.00000000E+00
  0.00000000E+00  0.00000000E+00  0.00000000E+00
  0.00000000E+00  0.00000000E+00  0.00000000E+00
  0.00000000E+00  0.00000000E+00  0.00000000E+00
  0.00000000E+00  0.00000000E+00  0.00000000E+00
  0.00000000E+00  0.00000000E+00  0.00000000E+00
  0.00000000E+00  0.00000000E+00  0.00000000E+00
  0.00000000E+00  0.00000000E+00  0.00000000E+00
  0.00000000E+00  0.00000000E+00  0.00000000E+00
  0.00000000E+00  0.00000000E+00  0.00000000E+00
  0.00000000E+00  0.00000000E+00  0.00000000E+00
  0.00000000E+00  0.00000000E+00  0.00000000E+00
  0.00000000E+00  0.00000000E+00  0.00000000E+00
  0.00000000E+00  0.00000000E+00  0.00000000E+00
  0.00000000E+00  0.00000000E+00  0.00000000E+00
  0.00000000E+00  0.00000000E+00  0.00000000E+00
  0.00000000E+00  0.00000000E+00  0.00000000E+00
  0.00000000E+00  0.00000000E+00  0.00000000E+00
  0.00000000E+00  0.00000000E+00  0.00000000E+00
  0.00000000E+00  0.00000000E+00  0.00000000E+00
  0.00000000E+00  0.00000000E+00  0.00000000E+00
  0.00000000E+00  0.00000000E+00  0.00000000E+00
  0.00000000E+00  0.00000000E+00  0.00000000E+00
  0.00000000E+00  0.00000000E+00  0.00000000E+00
