Ce12 C1 O25                             
   1.00000000000000     
     7.7074639999999999    0.0000000000000000    0.0000000000000000
    -3.8537319999999999    6.6748599999999998    0.0000000000000000
     0.0000000000000000    0.0000000000000000   28.3190309999999990
   Ce   O    C    O 
    12    24     1     1
Selective dynamics
Direct
  0.1666190004486799  0.3326579427941854  0.3867120557903067   T   T   T
  0.1666403540107488  0.8326602780210319  0.3867017626685320   T   T   T
  0.6665479157829165  0.3325924603847430  0.3866715839394841   T   T   T
  0.6665437462497696  0.8326456488261086  0.3866719493471862   T   T   T
 -0.0006096363484862 -0.0018323548013395  0.6115547315983546   T   T   T
 -0.0011725429113651  0.4985973944641150  0.6114881555818517   T   T   T
  0.4995144072200363 -0.0015200054156516  0.6116551504820599   T   T   T
  0.4997338081030675  0.4984628462476484  0.6118109068455674   T   T   T
  0.3331291241559991  0.1656461269143383  0.4992064080916958   T   T   T
  0.3331027748839210  0.6655662799000288  0.4992269191881463   T   T   T
  0.8329996733838946  0.1655678987254603  0.4991669495444687   T   T   T
  0.8329560988938807  0.6656085686634744  0.4991177290157355   T   T   T
  0.1664236855097421  0.3323300701197565  0.4703017471324909   T   T   T
  0.1663965403454764  0.8323695153084121  0.4702577510853825   T   T   T
  0.6664354642676288  0.3323481660764819  0.4702741167700146   T   T   T
  0.6665026801389387  0.8323679893663833  0.4702511137613761   T   T   T
 -0.0000509331121256 -0.0006989632676293  0.3584118203721801   T   T   T
 -0.0000302706756212  0.4993471926229963  0.3584000364189862   T   T   T
  0.4999259343022988 -0.0006926065065077  0.3583564856458170   T   T   T
  0.4999243063893974  0.4993212389517034  0.3583774034748844   T   T   T
  0.3332056716561785  0.1651977099934844  0.5829668095708260   T   T   T
  0.3327430142742369  0.6650435872961054  0.5831210288184820   T   T   T
  0.8325853306185844  0.1653390486760378  0.5829095131510907   T   T   T
  0.8327259643266073  0.6651616692572827  0.5830021224645413   T   T   T
 -0.0003699730676223 -0.0013117907103118  0.5280610572062704   T   T   T
 -0.0003921600911179  0.4990158589779286  0.5281098951015257   T   T   T
  0.4995390871748948 -0.0014096580765306  0.5280875570665446   T   T   T
  0.4997952674749850  0.4989272147704701  0.5281504954860806   T   T   T
  0.3333473617300234  0.1659543760328081  0.4153319809017372   T   T   T
  0.3332862567236612  0.6659578455997440  0.4153499907454795   T   T   T
  0.8331233360271253  0.1659036460094143  0.4153175396904959   T   T   T
  0.8331272764945491  0.6657965636335771  0.4152960940914150   T   T   T
  0.1655160876422944  0.3305011344616806  0.6396121865251321   T   T   T
  0.1661548862486272  0.8316067698515225  0.6399012872130421   T   T   T
  0.6662754840242024  0.3319363795002591  0.6397553165987224   T   T   T
  0.6662250993662787  0.8320861233488536  0.6398993064046971   T   T   T
  0.2295538113943595  0.4683029883793874  0.7372387976323841   T   T   T
  0.0783020669433336  0.4615328456025402  0.7410642445770114   T   T   T
 
  0.00000000E+00  0.00000000E+00  0.00000000E+00
  0.00000000E+00  0.00000000E+00  0.00000000E+00
  0.00000000E+00  0.00000000E+00  0.00000000E+00
  0.00000000E+00  0.00000000E+00  0.00000000E+00
  0.00000000E+00  0.00000000E+00  0.00000000E+00
  0.00000000E+00  0.00000000E+00  0.00000000E+00
  0.00000000E+00  0.00000000E+00  0.00000000E+00
  0.00000000E+00  0.00000000E+00  0.00000000E+00
  0.00000000E+00  0.00000000E+00  0.00000000E+00
  0.00000000E+00  0.00000000E+00  0.00000000E+00
  0.00000000E+00  0.00000000E+00  0.00000000E+00
  0.00000000E+00  0.00000000E+00  0.00000000E+00
  0.00000000E+00  0.00000000E+00  0.00000000E+00
  0.00000000E+00  0.00000000E+00  0.00000000E+00
  0.00000000E+00  0.00000000E+00  0.00000000E+00
  0.00000000E+00  0.00000000E+00  0.00000000E+00
  0.00000000E+00  0.00000000E+00  0.00000000E+00
  0.00000000E+00  0.00000000E+00  0.00000000E+00
  0.00000000E+00  0.00000000E+00  0.00000000E+00
  0.00000000E+00  0.00000000E+00  0.00000000E+00
  0.00000000E+00  0.00000000E+00  0.00000000E+00
  0.00000000E+00  0.00000000E+00  0.00000000E+00
  0.00000000E+00  0.00000000E+00  0.00000000E+00
  0.00000000E+00  0.00000000E+00  0.00000000E+00
  0.00000000E+00  0.00000000E+00  0.00000000E+00
  0.00000000E+00  0.00000000E+00  0.00000000E+00
  0.00000000E+00  0.00000000E+00  0.00000000E+00
  0.00000000E+00  0.00000000E+00  0.00000000E+00
  0.00000000E+00  0.00000000E+00  0.00000000E+00
  0.00000000E+00  0.00000000E+00  0.00000000E+00
  0.00000000E+00  0.00000000E+00  0.00000000E+00
  0.00000000E+00  0.00000000E+00  0.00000000E+00
  0.00000000E+00  0.00000000E+00  0.00000000E+00
  0.00000000E+00  0.00000000E+00  0.00000000E+00
  0.00000000E+00  0.00000000E+00  0.00000000E+00
  0.00000000E+00  0.00000000E+00  0.00000000E+00
  0.00000000E+00  0.00000000E+00  0.00000000E+00
  0.00000000E+00  0.00000000E+00  0.00000000E+00
