Ce12 C1 O25                             
   1.00000000000000     
     7.7074639999999999    0.0000000000000000    0.0000000000000000
    -3.8537319999999999    6.6748599999999998    0.0000000000000000
     0.0000000000000000    0.0000000000000000   28.3190309999999990
   Ce   O    C    O 
    12    24     1     1
Selective dynamics
Direct
  0.1669191060662756  0.3329646727441459  0.3865703018520747   T   T   T
  0.1669757497806038  0.8329363134833646  0.3865592066928543   T   T   T
  0.6669395559408478  0.3328803257445198  0.3866220622065127   T   T   T
  0.6668953952615682  0.8329690474240700  0.3865071322681145   T   T   T
 -0.0000642035247248 -0.0006234917535418  0.6116111700228096   T   T   T
 -0.0002041487571261  0.4993109870017673  0.6117694267224355   T   T   T
  0.5000956718095180 -0.0008318999112862  0.6124707717750063   T   T   T
  0.4997510113029327  0.5001960626080512  0.6116614689119259   T   T   T
  0.3338252655060241  0.1661234960633038  0.4992260477845120   T   T   T
  0.3333182292376662  0.6664153652194066  0.4991878164301976   T   T   T
  0.8332699826164259  0.1660791315087283  0.4992305757139233   T   T   T
  0.8333650512333348  0.6661176157489188  0.4991315543915301   T   T   T
  0.1666797867823891  0.3328633597229403  0.4700282203879267   T   T   T
  0.1667013351526088  0.8327318859863382  0.4701657418252810   T   T   T
  0.6668185630410265  0.3329409775572851  0.4703612034559734   T   T   T
  0.6670269941110663  0.8328911119402062  0.4701427344404542   T   T   T
  0.0000959643348555 -0.0004117899701034  0.3582707610502630   T   T   T
  0.0003709031311605  0.4994872048103331  0.3581992933887933   T   T   T
  0.5005688593615415 -0.0006138070866944  0.3582578741293103   T   T   T
  0.5003609896686586  0.4999222968739205  0.3582615297231750   T   T   T
  0.3341091344612663  0.1662986433519509  0.5833040603860814   T   T   T
  0.3332313710016412  0.6664113684593502  0.5832170871017436   T   T   T
  0.8330421461002597  0.1656970353910999  0.5832154340526563   T   T   T
  0.8327647450752685  0.6662063079487606  0.5829367444271246   T   T   T
  0.0008442043204648 -0.0000856778677646  0.5279900892844392   T   T   T
  0.0000266341623875  0.4993299095187393  0.5281112271257459   T   T   T
  0.5000999452175152 -0.0007662334785220  0.5282154097527868   T   T   T
  0.4993269358398058  0.4995036380349048  0.5279870491478812   T   T   T
  0.3339694262687139  0.1662011527715595  0.4152107977826087   T   T   T
  0.3334821903400250  0.6664301116277568  0.4151980203799416   T   T   T
  0.8332942175182075  0.1664696609879937  0.4152672826232949   T   T   T
  0.8335936062948778  0.6658503927221605  0.4152147902734037   T   T   T
  0.1664763642757777  0.3326367741824839  0.6399770994766992   T   T   T
  0.1654236559045137  0.8320893274685590  0.6400717797918740   T   T   T
  0.6675681767145132  0.3341889236856141  0.6404127665541550   T   T   T
  0.6664619335517826  0.8325869093032638  0.6401651807831923   T   T   T
  0.4457945099115432  0.1452843360836367  0.7310422883058819   T   T   T
  0.4141037409847843  0.2646305540927800  0.7460179995774170   T   T   T
 
  0.00000000E+00  0.00000000E+00  0.00000000E+00
  0.00000000E+00  0.00000000E+00  0.00000000E+00
  0.00000000E+00  0.00000000E+00  0.00000000E+00
  0.00000000E+00  0.00000000E+00  0.00000000E+00
  0.00000000E+00  0.00000000E+00  0.00000000E+00
  0.00000000E+00  0.00000000E+00  0.00000000E+00
  0.00000000E+00  0.00000000E+00  0.00000000E+00
  0.00000000E+00  0.00000000E+00  0.00000000E+00
  0.00000000E+00  0.00000000E+00  0.00000000E+00
  0.00000000E+00  0.00000000E+00  0.00000000E+00
  0.00000000E+00  0.00000000E+00  0.00000000E+00
  0.00000000E+00  0.00000000E+00  0.00000000E+00
  0.00000000E+00  0.00000000E+00  0.00000000E+00
  0.00000000E+00  0.00000000E+00  0.00000000E+00
  0.00000000E+00  0.00000000E+00  0.00000000E+00
  0.00000000E+00  0.00000000E+00  0.00000000E+00
  0.00000000E+00  0.00000000E+00  0.00000000E+00
  0.00000000E+00  0.00000000E+00  0.00000000E+00
  0.00000000E+00  0.00000000E+00  0.00000000E+00
  0.00000000E+00  0.00000000E+00  0.00000000E+00
  0.00000000E+00  0.00000000E+00  0.00000000E+00
  0.00000000E+00  0.00000000E+00  0.00000000E+00
  0.00000000E+00  0.00000000E+00  0.00000000E+00
  0.00000000E+00  0.00000000E+00  0.00000000E+00
  0.00000000E+00  0.00000000E+00  0.00000000E+00
  0.00000000E+00  0.00000000E+00  0.00000000E+00
  0.00000000E+00  0.00000000E+00  0.00000000E+00
  0.00000000E+00  0.00000000E+00  0.00000000E+00
  0.00000000E+00  0.00000000E+00  0.00000000E+00
  0.00000000E+00  0.00000000E+00  0.00000000E+00
  0.00000000E+00  0.00000000E+00  0.00000000E+00
  0.00000000E+00  0.00000000E+00  0.00000000E+00
  0.00000000E+00  0.00000000E+00  0.00000000E+00
  0.00000000E+00  0.00000000E+00  0.00000000E+00
  0.00000000E+00  0.00000000E+00  0.00000000E+00
  0.00000000E+00  0.00000000E+00  0.00000000E+00
  0.00000000E+00  0.00000000E+00  0.00000000E+00
  0.00000000E+00  0.00000000E+00  0.00000000E+00
