Ce12 C1 O25                             
   1.00000000000000     
     7.7074639999999999    0.0000000000000000    0.0000000000000000
    -3.8537319999999999    6.6748599999999998    0.0000000000000000
     0.0000000000000000    0.0000000000000000   28.3190309999999990
   Ce   O    C    O 
    12    24     1     1
Selective dynamics
Direct
  0.1670000528498394  0.3324884890234252  0.3869566005900638   T   T   T
  0.1669559396879070  0.8324362510334731  0.3869339749590730   T   T   T
  0.6670370986943249  0.3325113780757120  0.3869351581922846   T   T   T
  0.6670258457394876  0.8324525584768436  0.3869446605485132   T   T   T
  0.0009597855235172 -0.0008125965721643  0.6118695316942331   T   T   T
  0.0006131115701979  0.4991545238599415  0.6121713829586082   T   T   T
  0.5007244250040245 -0.0010155309734612  0.6119048283814925   T   T   T
  0.5008338009005121  0.4988755753858639  0.6118691027358257   T   T   T
  0.3339235513279593  0.1657644532553824  0.4994621990650442   T   T   T
  0.3336681215794287  0.6656737622157411  0.4995081793976960   T   T   T
  0.8338419267135057  0.1658565527509477  0.4995022231311936   T   T   T
  0.8338480903847745  0.6657411371423239  0.4994582312501658   T   T   T
  0.1670283596783902  0.3324437261842902  0.4706340301395108   T   T   T
  0.1671200112432244  0.8324158267893184  0.4705622168286055   T   T   T
  0.6671392491189676  0.3323774085669782  0.4705771496321732   T   T   T
  0.6671457348827373  0.8325068779568930  0.4705503022690000   T   T   T
  0.0003288712671550 -0.0009589885210220  0.3587110339630880   T   T   T
  0.0002201299483626  0.4991993281512763  0.3586907096803406   T   T   T
  0.5002897904009312 -0.0008591531333720  0.3587305451411204   T   T   T
  0.5004311992818450  0.4991197601467116  0.3587086454572591   T   T   T
  0.3349229854547596  0.1659933676197617  0.5831559062012210   T   T   T
  0.3336342582904932  0.6653720225903319  0.5834602239111242   T   T   T
  0.8337792763626108  0.1660264037960331  0.5833758184479377   T   T   T
  0.8338021514583347  0.6653152404981193  0.5833583782963317   T   T   T
  0.0004150760268037 -0.0009818266432610  0.5284131006556076   T   T   T
  0.0005619180931652  0.4991869256043406  0.5284176545799963   T   T   T
  0.5005822767561080 -0.0014003900617103  0.5283179883473514   T   T   T
  0.5006221992879228  0.4994488988310534  0.5283298358611555   T   T   T
  0.3336712502827202  0.1658887200629130  0.4156203345793134   T   T   T
  0.3335457233299021  0.6656395688113884  0.4156300701729888   T   T   T
  0.8338245284935981  0.1659720493842603  0.4156220518790091   T   T   T
  0.8336984851590785  0.6657023505162811  0.4156017236212260   T   T   T
  0.1676479347581167  0.3308208599888108  0.6400757997608642   T   T   T
  0.1674530832454897  0.8334395897241392  0.6400437939074125   T   T   T
  0.6674383276550983  0.3324356088666039  0.6404710910022225   T   T   T
  0.6673238559885736  0.8322280163358868  0.6403204804079594   T   T   T
  0.1738036549525902  0.4944545062664658  0.7715724129860398   T   T   T
  0.1404719186075361  0.5390867479934789  0.7356486293669485   T   T   T
 
  0.00000000E+00  0.00000000E+00  0.00000000E+00
  0.00000000E+00  0.00000000E+00  0.00000000E+00
  0.00000000E+00  0.00000000E+00  0.00000000E+00
  0.00000000E+00  0.00000000E+00  0.00000000E+00
  0.00000000E+00  0.00000000E+00  0.00000000E+00
  0.00000000E+00  0.00000000E+00  0.00000000E+00
  0.00000000E+00  0.00000000E+00  0.00000000E+00
  0.00000000E+00  0.00000000E+00  0.00000000E+00
  0.00000000E+00  0.00000000E+00  0.00000000E+00
  0.00000000E+00  0.00000000E+00  0.00000000E+00
  0.00000000E+00  0.00000000E+00  0.00000000E+00
  0.00000000E+00  0.00000000E+00  0.00000000E+00
  0.00000000E+00  0.00000000E+00  0.00000000E+00
  0.00000000E+00  0.00000000E+00  0.00000000E+00
  0.00000000E+00  0.00000000E+00  0.00000000E+00
  0.00000000E+00  0.00000000E+00  0.00000000E+00
  0.00000000E+00  0.00000000E+00  0.00000000E+00
  0.00000000E+00  0.00000000E+00  0.00000000E+00
  0.00000000E+00  0.00000000E+00  0.00000000E+00
  0.00000000E+00  0.00000000E+00  0.00000000E+00
  0.00000000E+00  0.00000000E+00  0.00000000E+00
  0.00000000E+00  0.00000000E+00  0.00000000E+00
  0.00000000E+00  0.00000000E+00  0.00000000E+00
  0.00000000E+00  0.00000000E+00  0.00000000E+00
  0.00000000E+00  0.00000000E+00  0.00000000E+00
  0.00000000E+00  0.00000000E+00  0.00000000E+00
  0.00000000E+00  0.00000000E+00  0.00000000E+00
  0.00000000E+00  0.00000000E+00  0.00000000E+00
  0.00000000E+00  0.00000000E+00  0.00000000E+00
  0.00000000E+00  0.00000000E+00  0.00000000E+00
  0.00000000E+00  0.00000000E+00  0.00000000E+00
  0.00000000E+00  0.00000000E+00  0.00000000E+00
  0.00000000E+00  0.00000000E+00  0.00000000E+00
  0.00000000E+00  0.00000000E+00  0.00000000E+00
  0.00000000E+00  0.00000000E+00  0.00000000E+00
  0.00000000E+00  0.00000000E+00  0.00000000E+00
  0.00000000E+00  0.00000000E+00  0.00000000E+00
  0.00000000E+00  0.00000000E+00  0.00000000E+00
