Ce12 C1 O25                             
   1.00000000000000     
     7.7074639999999999    0.0000000000000000    0.0000000000000000
    -3.8537319999999999    6.6748599999999998    0.0000000000000000
     0.0000000000000000    0.0000000000000000   28.3190309999999990
   Ce   O    C    O 
    12    24     1     1
Selective dynamics
Direct
  0.1659748818865054  0.3330180679642091  0.3860892291498532   T   T   T
  0.1662405966855906  0.8330475591009737  0.3861041093071347   T   T   T
  0.6659011272204558  0.3327588169481583  0.3860976103625521   T   T   T
  0.6658423464645090  0.8330487853005490  0.3861401470114080   T   T   T
  0.0001681960863441 -0.0010001191600042  0.6110325061778618   T   T   T
 -0.0001984741137932  0.4990891895091757  0.6113987912463272   T   T   T
  0.4999056493074179 -0.0009218041324745  0.6111886201515594   T   T   T
  0.4996975598841925  0.4986983649752412  0.6110399397169876   T   T   T
  0.3328252577024625  0.1659572095828615  0.4985896343292710   T   T   T
  0.3326708824748299  0.6659333858020710  0.4986657101771653   T   T   T
  0.8330982786490272  0.1662083760330905  0.4986737675436913   T   T   T
  0.8328809720468243  0.6660422404607806  0.4987083892071917   T   T   T
  0.1664281417316479  0.3327941632270371  0.4697120590307624   T   T   T
  0.1667924213533039  0.8332969080296105  0.4698343705954694   T   T   T
  0.6655219387871140  0.3323472597178959  0.4697684717633572   T   T   T
  0.6658055229582599  0.8327039835206541  0.4697146186550698   T   T   T
 -0.0006366743137646 -0.0000714480337575  0.3578690286312519   T   T   T
 -0.0005703273926445  0.4995090688815418  0.3578334945785968   T   T   T
  0.4994405596571146 -0.0003210934618180  0.3577473586077784   T   T   T
  0.4991123462566331  0.4996292916995059  0.3579097670402290   T   T   T
  0.3324328951738860  0.1654757985399293  0.5821399167559004   T   T   T
  0.3315079049704218  0.6644774631272892  0.5824470995647443   T   T   T
  0.8351490351109292  0.1672015176011625  0.5826100126033633   T   T   T
  0.8336100525372953  0.6657898569811062  0.5826707961444840   T   T   T
 -0.0007627777318143 -0.0008752758379206  0.5274550154532833   T   T   T
 -0.0006722449196045  0.4993217743368101  0.5274465834479338   T   T   T
  0.5003401846733916 -0.0008050236242449  0.5276595227918176   T   T   T
  0.4995200529422148  0.4994474052369793  0.5274923595238731   T   T   T
  0.3326664258452330  0.1659758668494300  0.4147720666437285   T   T   T
  0.3325390962974079  0.6664948884385877  0.4148171003336545   T   T   T
  0.8325658760602849  0.1663119081095293  0.4148199660336647   T   T   T
  0.8330483615538496  0.6663167210426715  0.4148013810253176   T   T   T
  0.1680972065035001  0.3319169848660624  0.6397303813571326   T   T   T
  0.1671142085350299  0.8329741067968794  0.6393987456652307   T   T   T
  0.6656917972452725  0.3316381818718149  0.6391069146926778   T   T   T
  0.6660508804520264  0.8326032802427681  0.6391246283902080   T   T   T
  0.1311218973824744  0.3627477694417663  0.7431195876908429   T   T   T
  0.2534679440361717  0.3278845700140848  0.7540602985986201   T   T   T
 
  0.00000000E+00  0.00000000E+00  0.00000000E+00
  0.00000000E+00  0.00000000E+00  0.00000000E+00
  0.00000000E+00  0.00000000E+00  0.00000000E+00
  0.00000000E+00  0.00000000E+00  0.00000000E+00
  0.00000000E+00  0.00000000E+00  0.00000000E+00
  0.00000000E+00  0.00000000E+00  0.00000000E+00
  0.00000000E+00  0.00000000E+00  0.00000000E+00
  0.00000000E+00  0.00000000E+00  0.00000000E+00
  0.00000000E+00  0.00000000E+00  0.00000000E+00
  0.00000000E+00  0.00000000E+00  0.00000000E+00
  0.00000000E+00  0.00000000E+00  0.00000000E+00
  0.00000000E+00  0.00000000E+00  0.00000000E+00
  0.00000000E+00  0.00000000E+00  0.00000000E+00
  0.00000000E+00  0.00000000E+00  0.00000000E+00
  0.00000000E+00  0.00000000E+00  0.00000000E+00
  0.00000000E+00  0.00000000E+00  0.00000000E+00
  0.00000000E+00  0.00000000E+00  0.00000000E+00
  0.00000000E+00  0.00000000E+00  0.00000000E+00
  0.00000000E+00  0.00000000E+00  0.00000000E+00
  0.00000000E+00  0.00000000E+00  0.00000000E+00
  0.00000000E+00  0.00000000E+00  0.00000000E+00
  0.00000000E+00  0.00000000E+00  0.00000000E+00
  0.00000000E+00  0.00000000E+00  0.00000000E+00
  0.00000000E+00  0.00000000E+00  0.00000000E+00
  0.00000000E+00  0.00000000E+00  0.00000000E+00
  0.00000000E+00  0.00000000E+00  0.00000000E+00
  0.00000000E+00  0.00000000E+00  0.00000000E+00
  0.00000000E+00  0.00000000E+00  0.00000000E+00
  0.00000000E+00  0.00000000E+00  0.00000000E+00
  0.00000000E+00  0.00000000E+00  0.00000000E+00
  0.00000000E+00  0.00000000E+00  0.00000000E+00
  0.00000000E+00  0.00000000E+00  0.00000000E+00
  0.00000000E+00  0.00000000E+00  0.00000000E+00
  0.00000000E+00  0.00000000E+00  0.00000000E+00
  0.00000000E+00  0.00000000E+00  0.00000000E+00
  0.00000000E+00  0.00000000E+00  0.00000000E+00
  0.00000000E+00  0.00000000E+00  0.00000000E+00
  0.00000000E+00  0.00000000E+00  0.00000000E+00
