Ce12 C1 O25                             
   1.00000000000000     
     7.7074639999999999    0.0000000000000000    0.0000000000000000
    -3.8537319999999999    6.6748599999999998    0.0000000000000000
     0.0000000000000000    0.0000000000000000   28.3190309999999990
   Ce   O    C    O 
    12    24     1     1
Selective dynamics
Direct
  0.1671698702559929  0.3345171999696964  0.3867931314998679   T   T   T
  0.1673451798353204  0.8347119905781047  0.3868829317336467   T   T   T
  0.6670803230171373  0.3344085072186329  0.3869030051191494   T   T   T
  0.6671295703744335  0.8346917675884099  0.3868836971347330   T   T   T
  0.0015407532895275  0.0031415047246704  0.6120342319222882   T   T   T
  0.0013203740468127  0.5026431719766195  0.6117455680105928   T   T   T
  0.5010907460318572  0.0022538880134688  0.6118644895014509   T   T   T
  0.5010659495203754  0.5025972018626138  0.6117335570374975   T   T   T
  0.3341785321741273  0.1686702910267005  0.4994026367094476   T   T   T
  0.3341070029842648  0.6684990051590073  0.4993405713600103   T   T   T
  0.8342814658200467  0.1687172263850299  0.4994014366639902   T   T   T
  0.8343301079425870  0.6689521794785499  0.4994231810943888   T   T   T
  0.1675041394106820  0.3353674791294060  0.4703222600626321   T   T   T
  0.1675616473477048  0.8351819785461054  0.4704794023465456   T   T   T
  0.6674023746512538  0.3350087969963932  0.4705143410225917   T   T   T
  0.6673770685378165  0.8352055278875568  0.4704824233265917   T   T   T
  0.0006989044032805  0.0015110841092800  0.3585767509690764   T   T   T
  0.0004017288506855  0.5009127151913050  0.3586627558182854   T   T   T
  0.5005357688758036  0.0013328129127296  0.3586103221901705   T   T   T
  0.5002607385979320  0.5008463879250473  0.3586483568991032   T   T   T
  0.3340506196506502  0.1692918501924122  0.5832217319302289   T   T   T
  0.3343535631291791  0.6685539294094368  0.5829294720972185   T   T   T
  0.8350167584584292  0.1692190348691780  0.5831969706720957   T   T   T
  0.8347089886174057  0.6699095546678170  0.5833213221103023   T   T   T
  0.0010390049121271  0.0022764385061564  0.5283984774334216   T   T   T
  0.0005160863910325  0.5023250352401475  0.5282783672067531   T   T   T
  0.5009362844321398  0.0020526857026546  0.5284656753303658   T   T   T
  0.5014594701985147  0.5022235006668053  0.5282588925705609   T   T   T
  0.3338922643341354  0.1677228618707533  0.4155994666631870   T   T   T
  0.3341997419329714  0.6685644236184941  0.4154857746445684   T   T   T
  0.8335775838312827  0.1676714732495597  0.4155879589424603   T   T   T
  0.8340008502043776  0.6683280042941387  0.4156338200840011   T   T   T
  0.1684024072136413  0.3373211272045355  0.6399937014365814   T   T   T
  0.1688909656092547  0.8360176341254798  0.6399264006872240   T   T   T
  0.6675047028300111  0.3353268985421566  0.6401518132890222   T   T   T
  0.6673362005746517  0.8363311993214758  0.6400582347603484   T   T   T
  0.1184830941232875  0.1806119912159132  0.7718349260437871   T   T   T
  0.0714711675892679  0.0804156406235521  0.7390679436758121   T   T   T
 
  0.00000000E+00  0.00000000E+00  0.00000000E+00
  0.00000000E+00  0.00000000E+00  0.00000000E+00
  0.00000000E+00  0.00000000E+00  0.00000000E+00
  0.00000000E+00  0.00000000E+00  0.00000000E+00
  0.00000000E+00  0.00000000E+00  0.00000000E+00
  0.00000000E+00  0.00000000E+00  0.00000000E+00
  0.00000000E+00  0.00000000E+00  0.00000000E+00
  0.00000000E+00  0.00000000E+00  0.00000000E+00
  0.00000000E+00  0.00000000E+00  0.00000000E+00
  0.00000000E+00  0.00000000E+00  0.00000000E+00
  0.00000000E+00  0.00000000E+00  0.00000000E+00
  0.00000000E+00  0.00000000E+00  0.00000000E+00
  0.00000000E+00  0.00000000E+00  0.00000000E+00
  0.00000000E+00  0.00000000E+00  0.00000000E+00
  0.00000000E+00  0.00000000E+00  0.00000000E+00
  0.00000000E+00  0.00000000E+00  0.00000000E+00
  0.00000000E+00  0.00000000E+00  0.00000000E+00
  0.00000000E+00  0.00000000E+00  0.00000000E+00
  0.00000000E+00  0.00000000E+00  0.00000000E+00
  0.00000000E+00  0.00000000E+00  0.00000000E+00
  0.00000000E+00  0.00000000E+00  0.00000000E+00
  0.00000000E+00  0.00000000E+00  0.00000000E+00
  0.00000000E+00  0.00000000E+00  0.00000000E+00
  0.00000000E+00  0.00000000E+00  0.00000000E+00
  0.00000000E+00  0.00000000E+00  0.00000000E+00
  0.00000000E+00  0.00000000E+00  0.00000000E+00
  0.00000000E+00  0.00000000E+00  0.00000000E+00
  0.00000000E+00  0.00000000E+00  0.00000000E+00
  0.00000000E+00  0.00000000E+00  0.00000000E+00
  0.00000000E+00  0.00000000E+00  0.00000000E+00
  0.00000000E+00  0.00000000E+00  0.00000000E+00
  0.00000000E+00  0.00000000E+00  0.00000000E+00
  0.00000000E+00  0.00000000E+00  0.00000000E+00
  0.00000000E+00  0.00000000E+00  0.00000000E+00
  0.00000000E+00  0.00000000E+00  0.00000000E+00
  0.00000000E+00  0.00000000E+00  0.00000000E+00
  0.00000000E+00  0.00000000E+00  0.00000000E+00
  0.00000000E+00  0.00000000E+00  0.00000000E+00
