Ce12 C1 O25                             
   1.00000000000000     
     7.7074639999999999    0.0000000000000000    0.0000000000000000
    -3.8537319999999999    6.6748599999999998    0.0000000000000000
     0.0000000000000000    0.0000000000000000   28.3190309999999990
   Ce   O    C    O 
    12    24     1     1
Selective dynamics
Direct
  0.1660191934729640  0.3319069418017236  0.3879072873450201   T   T   T
  0.1659564504660408  0.8319119009320906  0.3880461256481650   T   T   T
  0.6658887483287501  0.3319069418017236  0.3879072873450201   T   T   T
  0.6659389687296944  0.8318769374593986  0.3879206424069181   T   T   T
 -0.0012915363510320 -0.0019031320144197  0.6128560135494980   T   T   T
 -0.0010520364260971  0.4978959271478062  0.6128411455208729   T   T   T
  0.4993884043366124 -0.0019031320144197  0.6128560135494980   T   T   T
  0.4994063580098417  0.4988127160196834  0.6141239029611593   T   T   T
  0.3328900848332053  0.1657811696664012  0.5005736812347664   T   T   T
  0.3327996276076364  0.6649371230029821  0.5005257006202160   T   T   T
  0.8326151058155091  0.1652312116310090  0.5003563231714201   T   T   T
  0.8321364953953548  0.6649371230029821  0.5005257006202160   T   T   T
  0.1652249708711772  0.3315513408754608  0.4715977241476509   T   T   T
  0.1659230650728774  0.8318451301457643  0.4715507136904390   T   T   T
  0.6663273700042743  0.3315513408754608  0.4715977241476509   T   T   T
  0.6663570717445507  0.8327131434891116  0.4715986011508091   T   T   T
 -0.0005438793680484 -0.0015845367078627  0.3596856661310999   T   T   T
 -0.0005666937085032  0.4988666125829940  0.3596466108972120   T   T   T
  0.4989593426601855 -0.0015845367078627  0.3596856661310999   T   T   T
  0.4992555702753331  0.4985111405506666  0.3595665280086102   T   T   T
  0.3337245019633124  0.1674500039266155  0.5848081299716532   T   T   T
  0.3331716240673617  0.6638990179825538  0.5847359693371835   T   T   T
  0.8322206832645962  0.1644423665291836  0.5837801785891135   T   T   T
  0.8307263939152014  0.6638990179825538  0.5847359693371835   T   T   T
 -0.0001453156638206 -0.0020491903822179  0.5295090282652777   T   T   T
 -0.0003405023153218  0.4993189953693563  0.5295062409861891   T   T   T
  0.4980961252816025 -0.0020491903822179  0.5295090282652777   T   T   T
  0.4993501182220796  0.4987002364441591  0.5290984318618760   T   T   T
  0.3328172924195927  0.1656355848391756  0.4167126663711103   T   T   T
  0.3328324808300940  0.6650298131655624  0.4166946168121316   T   T   T
  0.8326379193290284  0.1652768386580473  0.4164486434897367   T   T   T
  0.8321963323354780  0.6650298131655624  0.4166946168121316   T   T   T
  0.1605159005015384  0.3289926646859002  0.6416324682140427   T   T   T
  0.1661029680995807  0.8322049361991708  0.6413289540519327   T   T   T
  0.6684777641843520  0.3289926646859002  0.6416324682140427   T   T   T
  0.6670475466400491  0.8340940932801085  0.6415675303543130   T   T   T
  0.4715321826464689  0.4430653652929419  0.7148857564817295   T   T   T
  0.4462913025084725  0.3925836050169503  0.7534662443077327   T   T   T
 
  0.00000000E+00  0.00000000E+00  0.00000000E+00
  0.00000000E+00  0.00000000E+00  0.00000000E+00
  0.00000000E+00  0.00000000E+00  0.00000000E+00
  0.00000000E+00  0.00000000E+00  0.00000000E+00
  0.00000000E+00  0.00000000E+00  0.00000000E+00
  0.00000000E+00  0.00000000E+00  0.00000000E+00
  0.00000000E+00  0.00000000E+00  0.00000000E+00
  0.00000000E+00  0.00000000E+00  0.00000000E+00
  0.00000000E+00  0.00000000E+00  0.00000000E+00
  0.00000000E+00  0.00000000E+00  0.00000000E+00
  0.00000000E+00  0.00000000E+00  0.00000000E+00
  0.00000000E+00  0.00000000E+00  0.00000000E+00
  0.00000000E+00  0.00000000E+00  0.00000000E+00
  0.00000000E+00  0.00000000E+00  0.00000000E+00
  0.00000000E+00  0.00000000E+00  0.00000000E+00
  0.00000000E+00  0.00000000E+00  0.00000000E+00
  0.00000000E+00  0.00000000E+00  0.00000000E+00
  0.00000000E+00  0.00000000E+00  0.00000000E+00
  0.00000000E+00  0.00000000E+00  0.00000000E+00
  0.00000000E+00  0.00000000E+00  0.00000000E+00
  0.00000000E+00  0.00000000E+00  0.00000000E+00
  0.00000000E+00  0.00000000E+00  0.00000000E+00
  0.00000000E+00  0.00000000E+00  0.00000000E+00
  0.00000000E+00  0.00000000E+00  0.00000000E+00
  0.00000000E+00  0.00000000E+00  0.00000000E+00
  0.00000000E+00  0.00000000E+00  0.00000000E+00
  0.00000000E+00  0.00000000E+00  0.00000000E+00
  0.00000000E+00  0.00000000E+00  0.00000000E+00
  0.00000000E+00  0.00000000E+00  0.00000000E+00
  0.00000000E+00  0.00000000E+00  0.00000000E+00
  0.00000000E+00  0.00000000E+00  0.00000000E+00
  0.00000000E+00  0.00000000E+00  0.00000000E+00
  0.00000000E+00  0.00000000E+00  0.00000000E+00
  0.00000000E+00  0.00000000E+00  0.00000000E+00
  0.00000000E+00  0.00000000E+00  0.00000000E+00
  0.00000000E+00  0.00000000E+00  0.00000000E+00
  0.00000000E+00  0.00000000E+00  0.00000000E+00
  0.00000000E+00  0.00000000E+00  0.00000000E+00
