Ce12 C1 O25                             
   1.00000000000000     
     7.7074639999999999    0.0000000000000000    0.0000000000000000
    -3.8537319999999999    6.6748599999999998    0.0000000000000000
     0.0000000000000000    0.0000000000000000   28.3190309999999990
   Ce   O    C    O 
    12    24     1     1
Selective dynamics
Direct
  0.1665500912458061  0.3334499087541937  0.3871057508492481   T   T   T
  0.1666540173608994  0.8335079864809329  0.3870713549520774   T   T   T
  0.6664920135190671  0.3333459826391006  0.3870713549520774   T   T   T
  0.6665274037074994  0.8334725962925006  0.3870777947654900   T   T   T
 -0.0007695262455046  0.0005139630205751  0.6121443830614265   T   T   T
 -0.0008460347262321  0.5008460347262321  0.6122255968583739   T   T   T
  0.4994525869746215  0.0005474130253784  0.6127342972644058   T   T   T
  0.4994860369794250  0.5007695262455043  0.6121443830614265   T   T   T
  0.3331408251782041  0.1668591748217958  0.4996823961282800   T   T   T
  0.3329743202215679  0.6672149250083457  0.4996788707230126   T   T   T
  0.8327850749916543  0.1670256797784323  0.4996788707230126   T   T   T
  0.8329357422309427  0.6670642577690573  0.4996446103812754   T   T   T
  0.1660317809148868  0.3339682190851130  0.4706498397205415   T   T   T
  0.1658686975685323  0.8330307329344270  0.4707925053017718   T   T   T
  0.6669692670655730  0.3341313024314678  0.4707925053017718   T   T   T
  0.6665467884647758  0.8334532115352242  0.4709204060142412   T   T   T
  0.0003034345816276  0.0003877544546396  0.3587709933673682   T   T   T
  0.0000201467130955  0.4999798532869046  0.3588511280714528   T   T   T
  0.4997762994825504  0.0002237005174495  0.3586874476450756   T   T   T
  0.4996122455453602  0.4996965654183728  0.3587709933673682   T   T   T
  0.3333150162443352  0.1666849837556647  0.5838474194499496   T   T   T
  0.3336247569525924  0.6683757608199075  0.5836447808787861   T   T   T
  0.8316242391800924  0.1663752430474078  0.5836447808787861   T   T   T
  0.8323681719859513  0.6676318280140487  0.5835158282014066   T   T   T
  0.0004452830785968  0.0012023847222184  0.5286054731372160   T   T   T
 -0.0004126585405469  0.5004126585405467  0.5287795546809264   T   T   T
  0.4993860582470546  0.0006139417529454  0.5284058213091932   T   T   T
  0.4987976152777816  0.4995547169214030  0.5286054731372160   T   T   T
  0.3333520036603679  0.1666479963396321  0.4158949878920551   T   T   T
  0.3337400992135182  0.6673824732652739  0.4157111104169274   T   T   T
  0.8326175267347261  0.1662599007864817  0.4157111104169274   T   T   T
  0.8330426322732325  0.6669573677267675  0.4156758340275053   T   T   T
  0.1657241253292515  0.3342758746707483  0.6404653632714540   T   T   T
  0.1642820134964302  0.8327864911727736  0.6405933467826596   T   T   T
  0.6672135088272264  0.3357179865035699  0.6405933467826596   T   T   T
  0.6664427865182663  0.8335572134817337  0.6407778104765227   T   T   T
  0.4392989857466367  0.0607010142533632  0.7689442271305807   T   T   T
  0.4635146240001270  0.0364853759998728  0.7302042486195314   T   T   T
 
  0.00000000E+00  0.00000000E+00  0.00000000E+00
  0.00000000E+00  0.00000000E+00  0.00000000E+00
  0.00000000E+00  0.00000000E+00  0.00000000E+00
  0.00000000E+00  0.00000000E+00  0.00000000E+00
  0.00000000E+00  0.00000000E+00  0.00000000E+00
  0.00000000E+00  0.00000000E+00  0.00000000E+00
  0.00000000E+00  0.00000000E+00  0.00000000E+00
  0.00000000E+00  0.00000000E+00  0.00000000E+00
  0.00000000E+00  0.00000000E+00  0.00000000E+00
  0.00000000E+00  0.00000000E+00  0.00000000E+00
  0.00000000E+00  0.00000000E+00  0.00000000E+00
  0.00000000E+00  0.00000000E+00  0.00000000E+00
  0.00000000E+00  0.00000000E+00  0.00000000E+00
  0.00000000E+00  0.00000000E+00  0.00000000E+00
  0.00000000E+00  0.00000000E+00  0.00000000E+00
  0.00000000E+00  0.00000000E+00  0.00000000E+00
  0.00000000E+00  0.00000000E+00  0.00000000E+00
  0.00000000E+00  0.00000000E+00  0.00000000E+00
  0.00000000E+00  0.00000000E+00  0.00000000E+00
  0.00000000E+00  0.00000000E+00  0.00000000E+00
  0.00000000E+00  0.00000000E+00  0.00000000E+00
  0.00000000E+00  0.00000000E+00  0.00000000E+00
  0.00000000E+00  0.00000000E+00  0.00000000E+00
  0.00000000E+00  0.00000000E+00  0.00000000E+00
  0.00000000E+00  0.00000000E+00  0.00000000E+00
  0.00000000E+00  0.00000000E+00  0.00000000E+00
  0.00000000E+00  0.00000000E+00  0.00000000E+00
  0.00000000E+00  0.00000000E+00  0.00000000E+00
  0.00000000E+00  0.00000000E+00  0.00000000E+00
  0.00000000E+00  0.00000000E+00  0.00000000E+00
  0.00000000E+00  0.00000000E+00  0.00000000E+00
  0.00000000E+00  0.00000000E+00  0.00000000E+00
  0.00000000E+00  0.00000000E+00  0.00000000E+00
  0.00000000E+00  0.00000000E+00  0.00000000E+00
  0.00000000E+00  0.00000000E+00  0.00000000E+00
  0.00000000E+00  0.00000000E+00  0.00000000E+00
  0.00000000E+00  0.00000000E+00  0.00000000E+00
  0.00000000E+00  0.00000000E+00  0.00000000E+00
