Ce12 C1 O25                             
   1.00000000000000     
     7.7074639999999999    0.0000000000000000    0.0000000000000000
    -3.8537319999999999    6.6748599999999998    0.0000000000000000
     0.0000000000000000    0.0000000000000000   28.3190309999999990
   Ce   O    C    O 
    12    24     1     1
Selective dynamics
Direct
  0.1672186671333893  0.3338085794953286  0.3878147667429582   T   T   T
  0.1672248971419161  0.8340860228236769  0.3878071492963761   T   T   T
  0.6672490679471651  0.3339387183300819  0.3879880496110515   T   T   T
  0.6674417692025413  0.8340623934327420  0.3878126272828232   T   T   T
  0.0004850956045279  0.0004712438539379  0.6140585445794905   T   T   T
  0.0009317576051683  0.5008738320755529  0.6126302269797976   T   T   T
  0.5005855887100837  0.0004165880277727  0.6126229286725597   T   T   T
  0.5006986497321119  0.5008803456651696  0.6126029090378359   T   T   T
  0.3335548323930687  0.1670585943773903  0.5004787886134553   T   T   T
  0.3339266863342274  0.6672318562748675  0.5002249812546239   T   T   T
  0.8342845663807484  0.1670600644055379  0.5004818306537306   T   T   T
  0.8343062287510976  0.6678281216146308  0.5004686760488755   T   T   T
  0.1677047598773205  0.3344896062981194  0.4715244656071186   T   T   T
  0.1678496264602581  0.8338699659921295  0.4714738965021195   T   T   T
  0.6670771288924950  0.3336663696612436  0.4714039080617497   T   T   T
  0.6667050352361502  0.8337586733720344  0.4714503995599469   T   T   T
  0.0005441186707890  0.0005556544736965  0.3594661950623861   T   T   T
  0.0002279937814198  0.5005089238123434  0.3596526512527595   T   T   T
  0.5008018999709053  0.0009772568643992  0.3596581760917202   T   T   T
  0.5008712277757279  0.5005471443764365  0.3596582106559580   T   T   T
  0.3322264824500505  0.1666538117880559  0.5845367493829490   T   T   T
  0.3334220138240404  0.6668863238817252  0.5835773507498219   T   T   T
  0.8354601818118459  0.1669898804401303  0.5846068969801980   T   T   T
  0.8351379567349503  0.6689116881730479  0.5846626597523011   T   T   T
  0.0005084724836948  0.0004049647340375  0.5291337499696168   T   T   T
 -0.0006265217691947  0.5001520972311069  0.5292382112353380   T   T   T
  0.5013514806786652  0.0016413357855464  0.5293685922366156   T   T   T
  0.5015972404157572  0.5004067133819375  0.5293084273614194   T   T   T
  0.3334317104715798  0.1670864168313096  0.4166039538316322   T   T   T
  0.3338977945347100  0.6672216179453366  0.4163612991824479   T   T   T
  0.8342976833934983  0.1671437481954028  0.4166286001664949   T   T   T
  0.8342079171733812  0.6677173830362030  0.4166715712962580   T   T   T
  0.1698811027506083  0.3384010573237488  0.6416118683707330   T   T   T
  0.1696808388367823  0.8324936811766531  0.6414632837621507   T   T   T
  0.6671112997324313  0.3336313023170802  0.6411647514996347   T   T   T
  0.6634149075922832  0.8321116232100814  0.6411749743706274   T   T   T
  0.0271201850404270  0.0284724112190433  0.7166317958765609   T   T   T
  0.0593016562433838  0.0586959881024673  0.7560918824078616   T   T   T
 
  0.00000000E+00  0.00000000E+00  0.00000000E+00
  0.00000000E+00  0.00000000E+00  0.00000000E+00
  0.00000000E+00  0.00000000E+00  0.00000000E+00
  0.00000000E+00  0.00000000E+00  0.00000000E+00
  0.00000000E+00  0.00000000E+00  0.00000000E+00
  0.00000000E+00  0.00000000E+00  0.00000000E+00
  0.00000000E+00  0.00000000E+00  0.00000000E+00
  0.00000000E+00  0.00000000E+00  0.00000000E+00
  0.00000000E+00  0.00000000E+00  0.00000000E+00
  0.00000000E+00  0.00000000E+00  0.00000000E+00
  0.00000000E+00  0.00000000E+00  0.00000000E+00
  0.00000000E+00  0.00000000E+00  0.00000000E+00
  0.00000000E+00  0.00000000E+00  0.00000000E+00
  0.00000000E+00  0.00000000E+00  0.00000000E+00
  0.00000000E+00  0.00000000E+00  0.00000000E+00
  0.00000000E+00  0.00000000E+00  0.00000000E+00
  0.00000000E+00  0.00000000E+00  0.00000000E+00
  0.00000000E+00  0.00000000E+00  0.00000000E+00
  0.00000000E+00  0.00000000E+00  0.00000000E+00
  0.00000000E+00  0.00000000E+00  0.00000000E+00
  0.00000000E+00  0.00000000E+00  0.00000000E+00
  0.00000000E+00  0.00000000E+00  0.00000000E+00
  0.00000000E+00  0.00000000E+00  0.00000000E+00
  0.00000000E+00  0.00000000E+00  0.00000000E+00
  0.00000000E+00  0.00000000E+00  0.00000000E+00
  0.00000000E+00  0.00000000E+00  0.00000000E+00
  0.00000000E+00  0.00000000E+00  0.00000000E+00
  0.00000000E+00  0.00000000E+00  0.00000000E+00
  0.00000000E+00  0.00000000E+00  0.00000000E+00
  0.00000000E+00  0.00000000E+00  0.00000000E+00
  0.00000000E+00  0.00000000E+00  0.00000000E+00
  0.00000000E+00  0.00000000E+00  0.00000000E+00
  0.00000000E+00  0.00000000E+00  0.00000000E+00
  0.00000000E+00  0.00000000E+00  0.00000000E+00
  0.00000000E+00  0.00000000E+00  0.00000000E+00
  0.00000000E+00  0.00000000E+00  0.00000000E+00
  0.00000000E+00  0.00000000E+00  0.00000000E+00
  0.00000000E+00  0.00000000E+00  0.00000000E+00
