Ce12 C1 O25                             
   1.00000000000000     
     7.7074639999999999    0.0000000000000000    0.0000000000000000
    -3.8537319999999999    6.6748599999999998    0.0000000000000000
     0.0000000000000000    0.0000000000000000   28.3190309999999990
   Ce   O    C    O 
    12    24     1     1
Selective dynamics
Direct
  0.1660276343105239  0.3343362299943031  0.3862749387491236   T   T   T
  0.1659350648997780  0.8342343959109598  0.3862904183762906   T   T   T
  0.6659881267947722  0.3343541106549910  0.3862087883064991   T   T   T
  0.6659529284790242  0.8342187514000545  0.3862395254126716   T   T   T
 -0.0024062184264717 -0.0000804859518078  0.6111250155739565   T   T   T
 -0.0021196076983241  0.5005279783250427  0.6111995980403513   T   T   T
  0.4982173527336956  0.0006353069027663  0.6112600241160976   T   T   T
  0.4984236922228372  0.5007494191739537  0.6118624021308918   T   T   T
  0.3322312487750959  0.1676031677345137  0.4988390814609630   T   T   T
  0.3322652177588402  0.6673355130890749  0.4988440637208043   T   T   T
  0.8320209017006869  0.1673460810055481  0.4987305622567405   T   T   T
  0.8318682446525975  0.6671926512879799  0.4987631310371533   T   T   T
  0.1654588095311456  0.3339697157280915  0.4699633735602944   T   T   T
  0.1656271588599524  0.8342392033768675  0.4698321557318991   T   T   T
  0.6655712819505911  0.3339780316332813  0.4698831528908828   T   T   T
  0.6656695444624422  0.8343087075385114  0.4698345465959560   T   T   T
 -0.0007725722921416  0.0006925708058376  0.3580190434019861   T   T   T
 -0.0005678551171113  0.5012089869857296  0.3579504468043876   T   T   T
  0.4992831370675306  0.0008319565099804  0.3580299431157104   T   T   T
  0.4995405568542290  0.5012094585175779  0.3579114153598436   T   T   T
  0.3318223850886491  0.1679872232905966  0.5827989573412635   T   T   T
  0.3318845589944950  0.6669792778323309  0.5828043318702482   T   T   T
  0.8313691724525757  0.1671766660896124  0.5823997600496023   T   T   T
  0.8311326789248830  0.6665355218715293  0.5827201514765465   T   T   T
 -0.0015587382942806  0.0000370814283421  0.5277022767146831   T   T   T
 -0.0011923156158318  0.5011197446681855  0.5276682571884905   T   T   T
  0.4982684084562682  0.0005123883619813  0.5277134650517595   T   T   T
  0.4989662808501770  0.5010158090456562  0.5277854259535925   T   T   T
  0.3326877292199448  0.1678767895493020  0.4148625814111365   T   T   T
  0.3325754097539511  0.6673588347010795  0.4149809167277851   T   T   T
  0.8326897284721982  0.1677246768018292  0.4148734344015477   T   T   T
  0.8323505801531651  0.6674061048702014  0.4149488091406568   T   T   T
  0.1626155931679854  0.3326969793975316  0.6396582353212222   T   T   T
  0.1648457229355095  0.8342365562558560  0.6395471749610081   T   T   T
  0.6649597474019147  0.3332786430874667  0.6396440012128505   T   T   T
  0.6653818151766396  0.8345573053513077  0.6394265036658847   T   T   T
  0.3233653420427953  0.3553402823275985  0.7357130327230368   T   T   T
  0.1936322532992661  0.2259563644463352  0.7554810581461809   T   T   T
 
  0.00000000E+00  0.00000000E+00  0.00000000E+00
  0.00000000E+00  0.00000000E+00  0.00000000E+00
  0.00000000E+00  0.00000000E+00  0.00000000E+00
  0.00000000E+00  0.00000000E+00  0.00000000E+00
  0.00000000E+00  0.00000000E+00  0.00000000E+00
  0.00000000E+00  0.00000000E+00  0.00000000E+00
  0.00000000E+00  0.00000000E+00  0.00000000E+00
  0.00000000E+00  0.00000000E+00  0.00000000E+00
  0.00000000E+00  0.00000000E+00  0.00000000E+00
  0.00000000E+00  0.00000000E+00  0.00000000E+00
  0.00000000E+00  0.00000000E+00  0.00000000E+00
  0.00000000E+00  0.00000000E+00  0.00000000E+00
  0.00000000E+00  0.00000000E+00  0.00000000E+00
  0.00000000E+00  0.00000000E+00  0.00000000E+00
  0.00000000E+00  0.00000000E+00  0.00000000E+00
  0.00000000E+00  0.00000000E+00  0.00000000E+00
  0.00000000E+00  0.00000000E+00  0.00000000E+00
  0.00000000E+00  0.00000000E+00  0.00000000E+00
  0.00000000E+00  0.00000000E+00  0.00000000E+00
  0.00000000E+00  0.00000000E+00  0.00000000E+00
  0.00000000E+00  0.00000000E+00  0.00000000E+00
  0.00000000E+00  0.00000000E+00  0.00000000E+00
  0.00000000E+00  0.00000000E+00  0.00000000E+00
  0.00000000E+00  0.00000000E+00  0.00000000E+00
  0.00000000E+00  0.00000000E+00  0.00000000E+00
  0.00000000E+00  0.00000000E+00  0.00000000E+00
  0.00000000E+00  0.00000000E+00  0.00000000E+00
  0.00000000E+00  0.00000000E+00  0.00000000E+00
  0.00000000E+00  0.00000000E+00  0.00000000E+00
  0.00000000E+00  0.00000000E+00  0.00000000E+00
  0.00000000E+00  0.00000000E+00  0.00000000E+00
  0.00000000E+00  0.00000000E+00  0.00000000E+00
  0.00000000E+00  0.00000000E+00  0.00000000E+00
  0.00000000E+00  0.00000000E+00  0.00000000E+00
  0.00000000E+00  0.00000000E+00  0.00000000E+00
  0.00000000E+00  0.00000000E+00  0.00000000E+00
  0.00000000E+00  0.00000000E+00  0.00000000E+00
  0.00000000E+00  0.00000000E+00  0.00000000E+00
