Ce12 C1 O25                             
   1.00000000000000     
     7.7074639999999999    0.0000000000000000    0.0000000000000000
    -3.8537319999999999    6.6748599999999998    0.0000000000000000
     0.0000000000000000    0.0000000000000000   28.3190309999999990
   Ce   O    C    O 
    12    24     1     1
Selective dynamics
Direct
  0.1661923981721107  0.3326022668448694  0.3866689511826044   T   T   T
  0.1661854382261971  0.8326663146848560  0.3866640649065409   T   T   T
  0.6661828996422070  0.3326610571162197  0.3866738293580085   T   T   T
  0.6661933265484932  0.8326376623371653  0.3866856137899242   T   T   T
 -0.0006722502457158 -0.0009621629748479  0.6116765611574129   T   T   T
 -0.0004974322670014  0.4995910151580456  0.6114907061195565   T   T   T
  0.4994096817207243 -0.0006263314105569  0.6114746064552333   T   T   T
  0.4994629198957218  0.4995888407811458  0.6114991833393528   T   T   T
  0.3328195011614100  0.1662237618108235  0.4991460992889156   T   T   T
  0.3327034774461268  0.6658398979089960  0.4990825466502518   T   T   T
  0.8330393458656805  0.1662013324631703  0.4991523757830207   T   T   T
  0.8328529931836773  0.6661482887476570  0.4991229279598495   T   T   T
  0.1662430008722948  0.3329133182811780  0.4702810513707265   T   T   T
  0.1662636521037896  0.8326367951239216  0.4702583253554324   T   T   T
  0.6662156709326542  0.3327539579314859  0.4701687492588938   T   T   T
  0.6660368856650004  0.8326733888099225  0.4702905411068763   T   T   T
 -0.0005022267537750 -0.0008441055088349  0.3584461989825096   T   T   T
 -0.0006373325112276  0.4992837299860399  0.3584392821922839   T   T   T
  0.4994877618603455 -0.0006825889126971  0.3584837719686008   T   T   T
  0.4996125558355204  0.4992300377687042  0.3584483272132129   T   T   T
  0.3324406015488615  0.1664423249345745  0.5829175565250626   T   T   T
  0.3325321984294853  0.6655214236628544  0.5826602180952468   T   T   T
  0.8334888814964466  0.1663192693956473  0.5829155583523364   T   T   T
  0.8327968069883633  0.6663143693662135  0.5829706224815634   T   T   T
 -0.0004843747076891 -0.0007139349442780  0.5279438698247116   T   T   T
 -0.0010455388543402  0.4993876963260866  0.5278797016178881   T   T   T
  0.4995704973256958 -0.0003941241804460  0.5279280016653685   T   T   T
  0.4998666832993823  0.4993677742020171  0.5278789862626642   T   T   T
  0.3326604049042824  0.1659743886764110  0.4153292454478058   T   T   T
  0.3328520637372817  0.6658933468802091  0.4152642356825115   T   T   T
  0.8330021743936208  0.1658838203201231  0.4153187335312453   T   T   T
  0.8329314429684918  0.6662528927273956  0.4153584523338143   T   T   T
  0.1667268181184761  0.3340366977952022  0.6399317794754854   T   T   T
  0.1668655617655642  0.8328158058941597  0.6395577512296773   T   T   T
  0.6659357590115638  0.3323982724566485  0.6397139713256255   T   T   T
  0.6654497019362140  0.8328345467487095  0.6396420628747455   T   T   T
  0.0468748191443292  0.1669867740274626  0.7492804085239043   T   T   T
  0.9965102311397391  0.0163861787637400  0.7311451313111359   T   T   T
 
  0.00000000E+00  0.00000000E+00  0.00000000E+00
  0.00000000E+00  0.00000000E+00  0.00000000E+00
  0.00000000E+00  0.00000000E+00  0.00000000E+00
  0.00000000E+00  0.00000000E+00  0.00000000E+00
  0.00000000E+00  0.00000000E+00  0.00000000E+00
  0.00000000E+00  0.00000000E+00  0.00000000E+00
  0.00000000E+00  0.00000000E+00  0.00000000E+00
  0.00000000E+00  0.00000000E+00  0.00000000E+00
  0.00000000E+00  0.00000000E+00  0.00000000E+00
  0.00000000E+00  0.00000000E+00  0.00000000E+00
  0.00000000E+00  0.00000000E+00  0.00000000E+00
  0.00000000E+00  0.00000000E+00  0.00000000E+00
  0.00000000E+00  0.00000000E+00  0.00000000E+00
  0.00000000E+00  0.00000000E+00  0.00000000E+00
  0.00000000E+00  0.00000000E+00  0.00000000E+00
  0.00000000E+00  0.00000000E+00  0.00000000E+00
  0.00000000E+00  0.00000000E+00  0.00000000E+00
  0.00000000E+00  0.00000000E+00  0.00000000E+00
  0.00000000E+00  0.00000000E+00  0.00000000E+00
  0.00000000E+00  0.00000000E+00  0.00000000E+00
  0.00000000E+00  0.00000000E+00  0.00000000E+00
  0.00000000E+00  0.00000000E+00  0.00000000E+00
  0.00000000E+00  0.00000000E+00  0.00000000E+00
  0.00000000E+00  0.00000000E+00  0.00000000E+00
  0.00000000E+00  0.00000000E+00  0.00000000E+00
  0.00000000E+00  0.00000000E+00  0.00000000E+00
  0.00000000E+00  0.00000000E+00  0.00000000E+00
  0.00000000E+00  0.00000000E+00  0.00000000E+00
  0.00000000E+00  0.00000000E+00  0.00000000E+00
  0.00000000E+00  0.00000000E+00  0.00000000E+00
  0.00000000E+00  0.00000000E+00  0.00000000E+00
  0.00000000E+00  0.00000000E+00  0.00000000E+00
  0.00000000E+00  0.00000000E+00  0.00000000E+00
  0.00000000E+00  0.00000000E+00  0.00000000E+00
  0.00000000E+00  0.00000000E+00  0.00000000E+00
  0.00000000E+00  0.00000000E+00  0.00000000E+00
  0.00000000E+00  0.00000000E+00  0.00000000E+00
  0.00000000E+00  0.00000000E+00  0.00000000E+00
