Ce12 C1 O25                             
   1.00000000000000     
     7.7074639999999999    0.0000000000000000    0.0000000000000000
    -3.8537319999999999    6.6748599999999998    0.0000000000000000
     0.0000000000000000    0.0000000000000000   28.3190309999999990
   Ce   O    C    O 
    12    24     1     1
Selective dynamics
Direct
  0.1664978884647609  0.3329786108882807  0.3866029435335392   T   T   T
  0.1665226626909030  0.8331537040565542  0.3866416034699319   T   T   T
  0.6664471103518957  0.3330097634919585  0.3867418227134756   T   T   T
  0.6665061974125657  0.8330941264211764  0.3866899124251729   T   T   T
  0.0000239293478866 -0.0002018083878729  0.6116253734538506   T   T   T
  0.0008887782477748  0.5008240148320436  0.6114287104277026   T   T   T
  0.5003689106067656  0.0005648874763708  0.6113399504082359   T   T   T
  0.4999673665167895  0.5007267689435599  0.6113567987139371   T   T   T
  0.3330243928721909  0.1665566491569878  0.4990697891643133   T   T   T
  0.3331427316678582  0.6665364035415808  0.4989839262656921   T   T   T
  0.8336471132264840  0.1666573254857222  0.4990892266511688   T   T   T
  0.8332308638542990  0.6665017409200094  0.4991009256605336   T   T   T
  0.1664940963649434  0.3333434905885241  0.4700686518178889   T   T   T
  0.1665120460978176  0.8328459906503667  0.4701959949311662   T   T   T
  0.6668091733487226  0.3333910372615443  0.4701657523191767   T   T   T
  0.6663386877520650  0.8329885690186588  0.4702690794671749   T   T   T
  0.0000915053368130 -0.0001868194805326  0.3583546358464508   T   T   T
 -0.0002542411743431  0.4997271559880013  0.3585001733844159   T   T   T
  0.4997058414825131 -0.0001336066382129  0.3584827022504722   T   T   T
  0.4997554500949982  0.4994679106082722  0.3584599366281873   T   T   T
  0.3320279554609391  0.1665949133846102  0.5828785001928160   T   T   T
  0.3332941206968769  0.6673646843965313  0.5825336635802297   T   T   T
  0.8352488212134930  0.1670409516904521  0.5829177689259275   T   T   T
  0.8339234258694814  0.6674833661466134  0.5828497679868431   T   T   T
 -0.0000320269070049 -0.0003097467004704  0.5278259850814072   T   T   T
 -0.0002389341257720  0.4998033243835538  0.5279501958954192   T   T   T
  0.5005158435557902  0.0008789030734389  0.5279617056311692   T   T   T
  0.4997631795079268  0.4996869961489392  0.5279371150559354   T   T   T
  0.3330377687071545  0.1662812708352961  0.4153612931896509   T   T   T
  0.3333974499937927  0.6665575543679351  0.4152445503970219   T   T   T
  0.8330675454068130  0.1660023480609132  0.4152687548419965   T   T   T
  0.8331329524719685  0.6667336912884448  0.4153492525965843   T   T   T
  0.1688948924780709  0.3367784009367444  0.6399197449774432   T   T   T
  0.1672866340557602  0.8336579093903552  0.6397361858899556   T   T   T
  0.6665960098015572  0.3329684854905744  0.6393527104277100   T   T   T
  0.6660307088919838  0.8334536193073964  0.6394490066981462   T   T   T
  0.1829722011779869  0.2105928733824226  0.7485574315743889   T   T   T
  0.0631499471794742  0.0599385395932589  0.7335284575248654   T   T   T
 
  0.00000000E+00  0.00000000E+00  0.00000000E+00
  0.00000000E+00  0.00000000E+00  0.00000000E+00
  0.00000000E+00  0.00000000E+00  0.00000000E+00
  0.00000000E+00  0.00000000E+00  0.00000000E+00
  0.00000000E+00  0.00000000E+00  0.00000000E+00
  0.00000000E+00  0.00000000E+00  0.00000000E+00
  0.00000000E+00  0.00000000E+00  0.00000000E+00
  0.00000000E+00  0.00000000E+00  0.00000000E+00
  0.00000000E+00  0.00000000E+00  0.00000000E+00
  0.00000000E+00  0.00000000E+00  0.00000000E+00
  0.00000000E+00  0.00000000E+00  0.00000000E+00
  0.00000000E+00  0.00000000E+00  0.00000000E+00
  0.00000000E+00  0.00000000E+00  0.00000000E+00
  0.00000000E+00  0.00000000E+00  0.00000000E+00
  0.00000000E+00  0.00000000E+00  0.00000000E+00
  0.00000000E+00  0.00000000E+00  0.00000000E+00
  0.00000000E+00  0.00000000E+00  0.00000000E+00
  0.00000000E+00  0.00000000E+00  0.00000000E+00
  0.00000000E+00  0.00000000E+00  0.00000000E+00
  0.00000000E+00  0.00000000E+00  0.00000000E+00
  0.00000000E+00  0.00000000E+00  0.00000000E+00
  0.00000000E+00  0.00000000E+00  0.00000000E+00
  0.00000000E+00  0.00000000E+00  0.00000000E+00
  0.00000000E+00  0.00000000E+00  0.00000000E+00
  0.00000000E+00  0.00000000E+00  0.00000000E+00
  0.00000000E+00  0.00000000E+00  0.00000000E+00
  0.00000000E+00  0.00000000E+00  0.00000000E+00
  0.00000000E+00  0.00000000E+00  0.00000000E+00
  0.00000000E+00  0.00000000E+00  0.00000000E+00
  0.00000000E+00  0.00000000E+00  0.00000000E+00
  0.00000000E+00  0.00000000E+00  0.00000000E+00
  0.00000000E+00  0.00000000E+00  0.00000000E+00
  0.00000000E+00  0.00000000E+00  0.00000000E+00
  0.00000000E+00  0.00000000E+00  0.00000000E+00
  0.00000000E+00  0.00000000E+00  0.00000000E+00
  0.00000000E+00  0.00000000E+00  0.00000000E+00
  0.00000000E+00  0.00000000E+00  0.00000000E+00
  0.00000000E+00  0.00000000E+00  0.00000000E+00
