Ce12 C1 O25                             
   1.00000000000000     
     7.7074639999999999    0.0000000000000000    0.0000000000000000
    -3.8537319999999999    6.6748599999999998    0.0000000000000000
     0.0000000000000000    0.0000000000000000   28.3190309999999990
   Ce   O    C    O 
    12    24     1     1
Selective dynamics
Direct
  0.1688670023097316  0.3403515932743752  0.3871859870212444   T   T   T
  0.1689629785585046  0.8404893750610130  0.3870385212212505   T   T   T
  0.6688495226665991  0.3403221833223822  0.3870114837947328   T   T   T
  0.6689117867734896  0.8404803770209459  0.3870509009311584   T   T   T
  0.0019035328846099  0.0079547224555058  0.6119494092263084   T   T   T
  0.0023079448972475  0.5085933139060774  0.6119334870518223   T   T   T
  0.5020775106758962  0.0071164654704651  0.6131628266369848   T   T   T
  0.5020898176948825  0.5086587550364370  0.6118443944948471   T   T   T
  0.3357430011049619  0.1740052884594092  0.4996895817850656   T   T   T
  0.3356748838157788  0.6747469576795032  0.4995688858278937   T   T   T
  0.8349983529793853  0.1741154431221326  0.4996532308972425   T   T   T
  0.8355199384922559  0.6742881887100831  0.4994700471478226   T   T   T
  0.1687941402699303  0.3409006245326026  0.4706124704132194   T   T   T
  0.1683489790075404  0.8405163907570696  0.4706657698790591   T   T   T
  0.6690699605325384  0.3413049552719126  0.4706934970151351   T   T   T
  0.6689846123573955  0.8405414360849924  0.4706898913054016   T   T   T
  0.0024000965466199  0.0072027403314980  0.3586690060184599   T   T   T
  0.0021151708904898  0.5068168996336668  0.3588531229400665   T   T   T
  0.5022247671327518  0.0072005557722897  0.3587116506524877   T   T   T
  0.5020928717589752  0.5067411557276528  0.3588035802160122   T   T   T
  0.3365255238811148  0.1740116197238233  0.5838151541899671   T   T   T
  0.3358033274205590  0.6759222073124279  0.5836908033666433   T   T   T
  0.8340724561255098  0.1743427749880188  0.5838052294360885   T   T   T
  0.8354285723245799  0.6746170365343332  0.5828945527228292   T   T   T
  0.0026464418358245  0.0086604658324338  0.5285256490589411   T   T   T
  0.0024639545310277  0.5073365543256836  0.5285079432210219   T   T   T
  0.5021840304909365  0.0076848707161941  0.5282945093409603   T   T   T
  0.5012008908587285  0.5072484118002099  0.5285117913048072   T   T   T
  0.3355649683933951  0.1735729362321445  0.4158364809060138   T   T   T
  0.3358069205328763  0.6742393215918678  0.4157119765368498   T   T   T
  0.8351624788871495  0.1734329193257299  0.4157767513464241   T   T   T
  0.8355346179647638  0.6739992707100914  0.4156389647634020   T   T   T
  0.1688073406566573  0.3416457993199249  0.6404226026394430   T   T   T
  0.1651353309333744  0.8398521373157364  0.6405050923123420   T   T   T
  0.6711314035561522  0.3467472723317812  0.6408730389636064   T   T   T
  0.6701419546780621  0.8399540027004181  0.6402874430897036   T   T   T
  0.5059135547087183  0.0796461036381722  0.7130150018268607   T   T   T
  0.5020843608709885  0.1491618739709869  0.7484192704978834   T   T   T
 
  0.00000000E+00  0.00000000E+00  0.00000000E+00
  0.00000000E+00  0.00000000E+00  0.00000000E+00
  0.00000000E+00  0.00000000E+00  0.00000000E+00
  0.00000000E+00  0.00000000E+00  0.00000000E+00
  0.00000000E+00  0.00000000E+00  0.00000000E+00
  0.00000000E+00  0.00000000E+00  0.00000000E+00
  0.00000000E+00  0.00000000E+00  0.00000000E+00
  0.00000000E+00  0.00000000E+00  0.00000000E+00
  0.00000000E+00  0.00000000E+00  0.00000000E+00
  0.00000000E+00  0.00000000E+00  0.00000000E+00
  0.00000000E+00  0.00000000E+00  0.00000000E+00
  0.00000000E+00  0.00000000E+00  0.00000000E+00
  0.00000000E+00  0.00000000E+00  0.00000000E+00
  0.00000000E+00  0.00000000E+00  0.00000000E+00
  0.00000000E+00  0.00000000E+00  0.00000000E+00
  0.00000000E+00  0.00000000E+00  0.00000000E+00
  0.00000000E+00  0.00000000E+00  0.00000000E+00
  0.00000000E+00  0.00000000E+00  0.00000000E+00
  0.00000000E+00  0.00000000E+00  0.00000000E+00
  0.00000000E+00  0.00000000E+00  0.00000000E+00
  0.00000000E+00  0.00000000E+00  0.00000000E+00
  0.00000000E+00  0.00000000E+00  0.00000000E+00
  0.00000000E+00  0.00000000E+00  0.00000000E+00
  0.00000000E+00  0.00000000E+00  0.00000000E+00
  0.00000000E+00  0.00000000E+00  0.00000000E+00
  0.00000000E+00  0.00000000E+00  0.00000000E+00
  0.00000000E+00  0.00000000E+00  0.00000000E+00
  0.00000000E+00  0.00000000E+00  0.00000000E+00
  0.00000000E+00  0.00000000E+00  0.00000000E+00
  0.00000000E+00  0.00000000E+00  0.00000000E+00
  0.00000000E+00  0.00000000E+00  0.00000000E+00
  0.00000000E+00  0.00000000E+00  0.00000000E+00
  0.00000000E+00  0.00000000E+00  0.00000000E+00
  0.00000000E+00  0.00000000E+00  0.00000000E+00
  0.00000000E+00  0.00000000E+00  0.00000000E+00
  0.00000000E+00  0.00000000E+00  0.00000000E+00
  0.00000000E+00  0.00000000E+00  0.00000000E+00
  0.00000000E+00  0.00000000E+00  0.00000000E+00
