Ce12 C1 O25                             
   1.00000000000000     
     7.7074639999999999    0.0000000000000000    0.0000000000000000
    -3.8537319999999999    6.6748599999999998    0.0000000000000000
     0.0000000000000000    0.0000000000000000   28.3190309999999990
   Ce   O    C    O 
    12    24     1     1
Selective dynamics
Direct
  0.1682387781866838  0.3344629359095143  0.3868396285729480   T   T   T
  0.1682483104313684  0.8345090388025449  0.3868335815774001   T   T   T
  0.6681555369739518  0.3344159134881021  0.3868229926396781   T   T   T
  0.6682452508458416  0.8344915552864175  0.3868438005457049   T   T   T
  0.0014382202420164  0.0011442984250689  0.6116694847303620   T   T   T
  0.0013240134173874  0.5011221675931355  0.6115598072207681   T   T   T
  0.5013219884245695  0.0009963867329619  0.6117052227729985   T   T   T
  0.5014048783106956  0.5012489649955323  0.6116089433356684   T   T   T
  0.3349601196909187  0.1678343624623027  0.4992067336383678   T   T   T
  0.3348689653547824  0.6678323808061497  0.4992009796036642   T   T   T
  0.8347599007652345  0.1677942097911813  0.4992061864011120   T   T   T
  0.8347787789881699  0.6677696519477605  0.4991832410425128   T   T   T
  0.1682097309368621  0.3343461898586398  0.4703403238660345   T   T   T
  0.1683050264906000  0.8347081081863250  0.4703423575243738   T   T   T
  0.6680737619369597  0.3343471999533921  0.4703461774642030   T   T   T
  0.6683146305528467  0.8346027584748917  0.4703545201086582   T   T   T
  0.0016814936433610  0.0012117792919429  0.3586829415704620   T   T   T
  0.0017514484082696  0.5012500450249986  0.3585202320815257   T   T   T
  0.5015262827337195  0.0010497868382057  0.3585412162940971   T   T   T
  0.5015198649857417  0.5012145719164339  0.3585366165358169   T   T   T
  0.3350200016011561  0.1678804210448080  0.5830338696224346   T   T   T
  0.3352665279598088  0.6679938561393384  0.5829715831745172   T   T   T
  0.8342935393999114  0.1673302394101903  0.5829691621258484   T   T   T
  0.8342034171234786  0.6678333092649266  0.5829281634189326   T   T   T
  0.0015141024161269  0.0011696202007266  0.5281922918881381   T   T   T
  0.0014285839270136  0.5011138414485117  0.5281177567066445   T   T   T
  0.5014193124745410  0.0012593508224675  0.5281119697344570   T   T   T
  0.5013709926147041  0.5008964557039605  0.5280608123434820   T   T   T
  0.3351396926272035  0.1679774717601851  0.4154250375392847   T   T   T
  0.3348717590468480  0.6677942235624610  0.4154868259203656   T   T   T
  0.8348691903778139  0.1680372331847699  0.4154281946443166   T   T   T
  0.8348177478117840  0.6675444633422829  0.4154395495299684   T   T   T
  0.1680511028943137  0.3343537689491474  0.6399095663524093   T   T   T
  0.1675919327121006  0.8339621697403626  0.6397032172131903   T   T   T
  0.6693863608319184  0.3354084138614478  0.6396887296604900   T   T   T
  0.6682232294070728  0.8346418812756683  0.6399926997080210   T   T   T
  0.5164527524456580  0.2362291406679352  0.7751572245399885   T   T   T
  0.4289527730085655  0.1666658338353143  0.7411543583511528   T   T   T
 
  0.00000000E+00  0.00000000E+00  0.00000000E+00
  0.00000000E+00  0.00000000E+00  0.00000000E+00
  0.00000000E+00  0.00000000E+00  0.00000000E+00
  0.00000000E+00  0.00000000E+00  0.00000000E+00
  0.00000000E+00  0.00000000E+00  0.00000000E+00
  0.00000000E+00  0.00000000E+00  0.00000000E+00
  0.00000000E+00  0.00000000E+00  0.00000000E+00
  0.00000000E+00  0.00000000E+00  0.00000000E+00
  0.00000000E+00  0.00000000E+00  0.00000000E+00
  0.00000000E+00  0.00000000E+00  0.00000000E+00
  0.00000000E+00  0.00000000E+00  0.00000000E+00
  0.00000000E+00  0.00000000E+00  0.00000000E+00
  0.00000000E+00  0.00000000E+00  0.00000000E+00
  0.00000000E+00  0.00000000E+00  0.00000000E+00
  0.00000000E+00  0.00000000E+00  0.00000000E+00
  0.00000000E+00  0.00000000E+00  0.00000000E+00
  0.00000000E+00  0.00000000E+00  0.00000000E+00
  0.00000000E+00  0.00000000E+00  0.00000000E+00
  0.00000000E+00  0.00000000E+00  0.00000000E+00
  0.00000000E+00  0.00000000E+00  0.00000000E+00
  0.00000000E+00  0.00000000E+00  0.00000000E+00
  0.00000000E+00  0.00000000E+00  0.00000000E+00
  0.00000000E+00  0.00000000E+00  0.00000000E+00
  0.00000000E+00  0.00000000E+00  0.00000000E+00
  0.00000000E+00  0.00000000E+00  0.00000000E+00
  0.00000000E+00  0.00000000E+00  0.00000000E+00
  0.00000000E+00  0.00000000E+00  0.00000000E+00
  0.00000000E+00  0.00000000E+00  0.00000000E+00
  0.00000000E+00  0.00000000E+00  0.00000000E+00
  0.00000000E+00  0.00000000E+00  0.00000000E+00
  0.00000000E+00  0.00000000E+00  0.00000000E+00
  0.00000000E+00  0.00000000E+00  0.00000000E+00
  0.00000000E+00  0.00000000E+00  0.00000000E+00
  0.00000000E+00  0.00000000E+00  0.00000000E+00
  0.00000000E+00  0.00000000E+00  0.00000000E+00
  0.00000000E+00  0.00000000E+00  0.00000000E+00
  0.00000000E+00  0.00000000E+00  0.00000000E+00
  0.00000000E+00  0.00000000E+00  0.00000000E+00
