Ce12 C1 O25                             
   1.00000000000000     
     7.7074639999999999    0.0000000000000000    0.0000000000000000
    -3.8537319999999999    6.6748599999999998    0.0000000000000000
     0.0000000000000000    0.0000000000000000   28.3190309999999990
   Ce   O    C    O 
    12    24     1     1
Selective dynamics
Direct
  0.1678905293287785  0.3335129705167471  0.3859305921926380   T   T   T
  0.1679096463604027  0.8336301607256721  0.3859462776449168   T   T   T
  0.6678684864006463  0.3335596635481214  0.3859090375343058   T   T   T
  0.6679784672353830  0.8336446198589422  0.3859546704540228   T   T   T
  0.0016597105758770  0.0002871978254022  0.6110669864505178   T   T   T
  0.0017060872758420  0.5003066336396408  0.6111151898954438   T   T   T
  0.5017294396332426  0.0002868065838203  0.6110158653399715   T   T   T
  0.5018745746893412  0.5005255340439071  0.6108673185941980   T   T   T
  0.3347254202531026  0.1668961660372485  0.4984668143391430   T   T   T
  0.3347070741834322  0.6669214318303055  0.4984654535442747   T   T   T
  0.8348467653332072  0.1669817323232073  0.4984805407971932   T   T   T
  0.8348871256871572  0.6669761593310266  0.4984724333087179   T   T   T
  0.1681907742379287  0.3339094204337040  0.4695461235763437   T   T   T
  0.1681051712366626  0.8333491711074519  0.4696146571215477   T   T   T
  0.6681569370448742  0.3337120827349579  0.4694489216239456   T   T   T
  0.6678384682968702  0.8334540410601169  0.4696061337267813   T   T   T
  0.0013119068288654  0.0003209492807592  0.3575842478851217   T   T   T
  0.0012117961170144  0.5002621790003630  0.3575801986734955   T   T   T
  0.5012349986544705  0.0003897296510258  0.3575835717104083   T   T   T
  0.5012432403105734  0.5000824832761573  0.3575415843171951   T   T   T
  0.3344649163255648  0.1666505002036613  0.5824096842176607   T   T   T
  0.3349204364384341  0.6670917593055866  0.5822892974735597   T   T   T
  0.8353459804549003  0.1666596018235725  0.5825001393083138   T   T   T
  0.8354313191456224  0.6676186728599917  0.5823874449142622   T   T   T
  0.0015541328933116  0.0004504306486047  0.5273602552542268   T   T   T
  0.0010611859320873  0.4998930541545964  0.5275153577281584   T   T   T
  0.5018422931391957  0.0008095096229614  0.5274633501485375   T   T   T
  0.5016610119313574  0.5000439957020253  0.5274452034382940   T   T   T
  0.3343642731048251  0.1667374813619137  0.4146093935602385   T   T   T
  0.3347272591657766  0.6670104772759728  0.4145145407045714   T   T   T
  0.8346648912490899  0.1667525809684207  0.4145766055073679   T   T   T
  0.8347289624150238  0.6672203216560294  0.4145701015541342   T   T   T
  0.1691852167460099  0.3342568132105789  0.6394481857887256   T   T   T
  0.1686058681050463  0.8336980690792539  0.6395066084373169   T   T   T
  0.6686433209461424  0.3337152139014758  0.6389149286372537   T   T   T
  0.6677727594139989  0.8331232413576403  0.6394060389791770   T   T   T
  0.3583459747705856  0.3169847330821209  0.7553605396784676   T   T   T
  0.5135495781393515  0.3389404109770222  0.7473157059395512   T   T   T
 
  0.00000000E+00  0.00000000E+00  0.00000000E+00
  0.00000000E+00  0.00000000E+00  0.00000000E+00
  0.00000000E+00  0.00000000E+00  0.00000000E+00
  0.00000000E+00  0.00000000E+00  0.00000000E+00
  0.00000000E+00  0.00000000E+00  0.00000000E+00
  0.00000000E+00  0.00000000E+00  0.00000000E+00
  0.00000000E+00  0.00000000E+00  0.00000000E+00
  0.00000000E+00  0.00000000E+00  0.00000000E+00
  0.00000000E+00  0.00000000E+00  0.00000000E+00
  0.00000000E+00  0.00000000E+00  0.00000000E+00
  0.00000000E+00  0.00000000E+00  0.00000000E+00
  0.00000000E+00  0.00000000E+00  0.00000000E+00
  0.00000000E+00  0.00000000E+00  0.00000000E+00
  0.00000000E+00  0.00000000E+00  0.00000000E+00
  0.00000000E+00  0.00000000E+00  0.00000000E+00
  0.00000000E+00  0.00000000E+00  0.00000000E+00
  0.00000000E+00  0.00000000E+00  0.00000000E+00
  0.00000000E+00  0.00000000E+00  0.00000000E+00
  0.00000000E+00  0.00000000E+00  0.00000000E+00
  0.00000000E+00  0.00000000E+00  0.00000000E+00
  0.00000000E+00  0.00000000E+00  0.00000000E+00
  0.00000000E+00  0.00000000E+00  0.00000000E+00
  0.00000000E+00  0.00000000E+00  0.00000000E+00
  0.00000000E+00  0.00000000E+00  0.00000000E+00
  0.00000000E+00  0.00000000E+00  0.00000000E+00
  0.00000000E+00  0.00000000E+00  0.00000000E+00
  0.00000000E+00  0.00000000E+00  0.00000000E+00
  0.00000000E+00  0.00000000E+00  0.00000000E+00
  0.00000000E+00  0.00000000E+00  0.00000000E+00
  0.00000000E+00  0.00000000E+00  0.00000000E+00
  0.00000000E+00  0.00000000E+00  0.00000000E+00
  0.00000000E+00  0.00000000E+00  0.00000000E+00
  0.00000000E+00  0.00000000E+00  0.00000000E+00
  0.00000000E+00  0.00000000E+00  0.00000000E+00
  0.00000000E+00  0.00000000E+00  0.00000000E+00
  0.00000000E+00  0.00000000E+00  0.00000000E+00
  0.00000000E+00  0.00000000E+00  0.00000000E+00
  0.00000000E+00  0.00000000E+00  0.00000000E+00
