Ce12 C1 O25
1.0
7.707464 0.000000 0.000000
-3.853732 6.674860 0.000000
0.000000 0.000000 28.319031
Ce O C O
12 24 1 1
Selective dynamics
direct
0.166667 0.333333 0.388889 T T T Ce
0.166667 0.833333 0.388889 T T T Ce
0.666667 0.333333 0.388889 T T T Ce
0.666667 0.833333 0.388889 T T T Ce
0.000000 0.000000 0.611111 T T T Ce
0.000000 0.500000 0.611111 T T T Ce
0.500000 0.000000 0.611111 T T T Ce
0.500000 0.500000 0.611111 T T T Ce
0.333333 0.166667 0.500000 T T T Ce
0.333333 0.666667 0.500000 T T T Ce
0.833333 0.166667 0.500000 T T T Ce
0.833333 0.666667 0.500000 T T T Ce
0.166667 0.333333 0.472222 T T T O
0.166667 0.833333 0.472222 T T T O
0.666667 0.333333 0.472222 T T T O
0.666667 0.833333 0.472222 T T T O
0.000000 0.000000 0.361111 T T T O
1.000000 0.500000 0.361111 T T T O
0.500000 0.000000 0.361111 T T T O
0.500000 0.500000 0.361111 T T T O
0.333333 0.166667 0.583333 T T T O
0.333333 0.666667 0.583333 T T T O
0.833333 0.166667 0.583333 T T T O
0.833333 0.666667 0.583333 T T T O
0.000000 0.000000 0.527778 T T T O
0.000000 0.500000 0.527778 T T T O
0.500000 0.000000 0.527778 T T T O
0.500000 0.500000 0.527778 T T T O
0.333333 0.166667 0.416667 T T T O
0.333333 0.666667 0.416667 T T T O
0.833333 0.166667 0.416667 T T T O
0.833333 0.666667 0.416667 T T T O
0.166667 0.333333 0.638889 T T T O
0.166667 0.833333 0.638889 T T T O
0.666667 0.333333 0.638889 T T T O
0.666667 0.833333 0.638889 T T T O
0.166667 0.388889 0.723895 T T T C
0.252212 0.559979 0.723895 T T T O
