Ce12 C1 O25                             
   1.00000000000000     
     7.7074639999999999    0.0000000000000000    0.0000000000000000
    -3.8537319999999999    6.6748599999999998    0.0000000000000000
     0.0000000000000000    0.0000000000000000   28.3190309999999990
   Ce   O    C    O 
    12    24     1     1
Selective dynamics
Direct
  0.1665428505957544  0.3336356948408966  0.3867348701678397   T   T   T
  0.1665408088014995  0.8336988168074915  0.3867306470442171   T   T   T
  0.6664394265230852  0.3336120278448792  0.3867304640455808   T   T   T
  0.6664683570053407  0.8336340225343076  0.3867131726413722   T   T   T
 -0.0008175719066199  0.0005736799111171  0.6116245653278720   T   T   T
 -0.0001207183050883  0.5007207275949178  0.6116712247431006   T   T   T
  0.4997838050455716  0.0006752280891230  0.6118134265854100   T   T   T
  0.4998940704822686  0.5007772183677357  0.6116276454383586   T   T   T
  0.3331057212947001  0.1670626742722252  0.4993113393277904   T   T   T
  0.3331001172253873  0.6672248592907182  0.4992737085742260   T   T   T
  0.8330415346269485  0.1671768927180172  0.4992728067785963   T   T   T
  0.8331950047642757  0.6671821502487999  0.4992556072320969   T   T   T
  0.1666035433377918  0.3337832522744105  0.4703568673177690   T   T   T
  0.1666830921280004  0.8339453096380456  0.4703465191945336   T   T   T
  0.6662528409947776  0.3334952471650173  0.4703094193582190   T   T   T
  0.6663521830121126  0.8338689626641821  0.4702747770392599   T   T   T
 -0.0001329216949897  0.0004245196130929  0.3584145391833614   T   T   T
 -0.0002364584863540  0.5004088623730419  0.3584248722387671   T   T   T
  0.4997381793346277  0.0004351175379274  0.3583895203178139   T   T   T
  0.4997616569608550  0.5003412689954406  0.3584191726701675   T   T   T
  0.3326596420006764  0.1668215487725530  0.5830641214474892   T   T   T
  0.3331290024935306  0.6675823508321534  0.5828445871192200   T   T   T
  0.8332485138577329  0.1672134013954104  0.5830237335013525   T   T   T
  0.8333972075825671  0.6676018889894136  0.5829415329964204   T   T   T
 -0.0004491698517690  0.0004950275296895  0.5281737072727949   T   T   T
 -0.0004643634645037  0.5002818416173028  0.5281519190483314   T   T   T
  0.4999815389929863  0.0007381384389491  0.5283182606763627   T   T   T
  0.5000864635530526  0.5004805974888598  0.5282213513281454   T   T   T
  0.3330981217835632  0.1669858825994594  0.4154453068410363   T   T   T
  0.3330665443882342  0.6671056427635439  0.4154029263072299   T   T   T
  0.8331761523805389  0.1671327053622934  0.4154270816954456   T   T   T
  0.8332024314635220  0.6670487041225009  0.4154407482028880   T   T   T
  0.1674418667371555  0.3352004196079713  0.6396232674431328   T   T   T
  0.1660331832557128  0.8330799090835335  0.6400336658416355   T   T   T
  0.6666785163327907  0.3342455990889950  0.6398744956836198   T   T   T
  0.6659626147500608  0.8337454172460236  0.6397292665036962   T   T   T
  0.2329244469798449  0.0625799109869974  0.7388601472421867   T   T   T
  0.0709077650243578  0.0300964812929703  0.7375187156226612   T   T   T
 
  0.00000000E+00  0.00000000E+00  0.00000000E+00
  0.00000000E+00  0.00000000E+00  0.00000000E+00
  0.00000000E+00  0.00000000E+00  0.00000000E+00
  0.00000000E+00  0.00000000E+00  0.00000000E+00
  0.00000000E+00  0.00000000E+00  0.00000000E+00
  0.00000000E+00  0.00000000E+00  0.00000000E+00
  0.00000000E+00  0.00000000E+00  0.00000000E+00
  0.00000000E+00  0.00000000E+00  0.00000000E+00
  0.00000000E+00  0.00000000E+00  0.00000000E+00
  0.00000000E+00  0.00000000E+00  0.00000000E+00
  0.00000000E+00  0.00000000E+00  0.00000000E+00
  0.00000000E+00  0.00000000E+00  0.00000000E+00
  0.00000000E+00  0.00000000E+00  0.00000000E+00
  0.00000000E+00  0.00000000E+00  0.00000000E+00
  0.00000000E+00  0.00000000E+00  0.00000000E+00
  0.00000000E+00  0.00000000E+00  0.00000000E+00
  0.00000000E+00  0.00000000E+00  0.00000000E+00
  0.00000000E+00  0.00000000E+00  0.00000000E+00
  0.00000000E+00  0.00000000E+00  0.00000000E+00
  0.00000000E+00  0.00000000E+00  0.00000000E+00
  0.00000000E+00  0.00000000E+00  0.00000000E+00
  0.00000000E+00  0.00000000E+00  0.00000000E+00
  0.00000000E+00  0.00000000E+00  0.00000000E+00
  0.00000000E+00  0.00000000E+00  0.00000000E+00
  0.00000000E+00  0.00000000E+00  0.00000000E+00
  0.00000000E+00  0.00000000E+00  0.00000000E+00
  0.00000000E+00  0.00000000E+00  0.00000000E+00
  0.00000000E+00  0.00000000E+00  0.00000000E+00
  0.00000000E+00  0.00000000E+00  0.00000000E+00
  0.00000000E+00  0.00000000E+00  0.00000000E+00
  0.00000000E+00  0.00000000E+00  0.00000000E+00
  0.00000000E+00  0.00000000E+00  0.00000000E+00
  0.00000000E+00  0.00000000E+00  0.00000000E+00
  0.00000000E+00  0.00000000E+00  0.00000000E+00
  0.00000000E+00  0.00000000E+00  0.00000000E+00
  0.00000000E+00  0.00000000E+00  0.00000000E+00
  0.00000000E+00  0.00000000E+00  0.00000000E+00
  0.00000000E+00  0.00000000E+00  0.00000000E+00
