Ce12 C1 O25                             
   1.00000000000000     
     7.7074639999999999    0.0000000000000000    0.0000000000000000
    -3.8537319999999999    6.6748599999999998    0.0000000000000000
     0.0000000000000000    0.0000000000000000   28.3190309999999990
   Ce   O    C    O 
    12    24     1     1
Selective dynamics
Direct
  0.1666391718155565  0.3333625800710127  0.3874026248938650   T   T   T
  0.1666704020176971  0.8332932933135804  0.3873451568268660   T   T   T
  0.6667061780094853  0.3333304591710890  0.3873378469011070   T   T   T
  0.6666510091983859  0.8333508044104158  0.3873560864142735   T   T   T
 -0.0009600037532524 -0.0003514724368387  0.6123421456547308   T   T   T
 -0.0004501104672071  0.4997137892252386  0.6123350186159646   T   T   T
  0.4998206625429014  0.0000290314368085  0.6126303897958939   T   T   T
  0.4999167297370157  0.5003045196128572  0.6125016608829035   T   T   T
  0.3334334409086214  0.1666921482310016  0.4999749447082865   T   T   T
  0.3335511740672660  0.6667808695361188  0.4999526240170111   T   T   T
  0.8331578180181897  0.1665105563014096  0.4998810523671020   T   T   T
  0.8330962657221175  0.6666602754835377  0.4999274105442300   T   T   T
  0.1666052767728843  0.3332975438073585  0.4710212634355625   T   T   T
  0.1668144611977451  0.8334207129234312  0.4709888260304868   T   T   T
  0.6666052513969460  0.3331527932274708  0.4709902514539470   T   T   T
  0.6666170186989393  0.8334633236405221  0.4710287847474798   T   T   T
  0.0000092471402611 -0.0000062545768168  0.3590299435339454   T   T   T
 -0.0000042264282207  0.5000063730978183  0.3590231759616230   T   T   T
  0.4999922432700755  0.0000058951219207  0.3590246653580415   T   T   T
  0.5000053456558899  0.4999913506224196  0.3590314875700316   T   T   T
  0.3337541254949457  0.1662761795398924  0.5841134704934339   T   T   T
  0.3348515458754098  0.6674432027825201  0.5838494003880684   T   T   T
  0.8321841112839158  0.1653778766545617  0.5838667150757397   T   T   T
  0.8312031875746808  0.6669486091554274  0.5833034078821416   T   T   T
  0.0003195670129622  0.0004667518526851  0.5288542260538552   T   T   T
  0.0000739083548334  0.4998650199526247  0.5288425602920268   T   T   T
  0.4999549919622079  0.0001418094891135  0.5291655359257684   T   T   T
  0.4994086109949100  0.4995054894918122  0.5288073462027357   T   T   T
  0.3333677215768730  0.1666444215675601  0.4160460298210283   T   T   T
  0.3333480625770407  0.6667161185665812  0.4160716629021269   T   T   T
  0.8332778261157080  0.1666541700950027  0.4160846275345316   T   T   T
  0.8333353248405178  0.6666509311234677  0.4160236400400137   T   T   T
  0.1670265399782245  0.3328210588570559  0.6411516258821609   T   T   T
  0.1620597923477562  0.8290433072510960  0.6396670355547170   T   T   T
  0.6683951696290026  0.3352581708122287  0.6405016374172752   T   T   T
  0.6661205324387758  0.8339744651808790  0.6413401207583441   T   T   T
  0.3870874353188566  0.0551713428155306  0.7658148428570658   T   T   T
  0.3971321911020794  0.0591444825916113  0.7254867552056137   T   T   T
 
  0.00000000E+00  0.00000000E+00  0.00000000E+00
  0.00000000E+00  0.00000000E+00  0.00000000E+00
  0.00000000E+00  0.00000000E+00  0.00000000E+00
  0.00000000E+00  0.00000000E+00  0.00000000E+00
  0.00000000E+00  0.00000000E+00  0.00000000E+00
  0.00000000E+00  0.00000000E+00  0.00000000E+00
  0.00000000E+00  0.00000000E+00  0.00000000E+00
  0.00000000E+00  0.00000000E+00  0.00000000E+00
  0.00000000E+00  0.00000000E+00  0.00000000E+00
  0.00000000E+00  0.00000000E+00  0.00000000E+00
  0.00000000E+00  0.00000000E+00  0.00000000E+00
  0.00000000E+00  0.00000000E+00  0.00000000E+00
  0.00000000E+00  0.00000000E+00  0.00000000E+00
  0.00000000E+00  0.00000000E+00  0.00000000E+00
  0.00000000E+00  0.00000000E+00  0.00000000E+00
  0.00000000E+00  0.00000000E+00  0.00000000E+00
  0.00000000E+00  0.00000000E+00  0.00000000E+00
  0.00000000E+00  0.00000000E+00  0.00000000E+00
  0.00000000E+00  0.00000000E+00  0.00000000E+00
  0.00000000E+00  0.00000000E+00  0.00000000E+00
  0.00000000E+00  0.00000000E+00  0.00000000E+00
  0.00000000E+00  0.00000000E+00  0.00000000E+00
  0.00000000E+00  0.00000000E+00  0.00000000E+00
  0.00000000E+00  0.00000000E+00  0.00000000E+00
  0.00000000E+00  0.00000000E+00  0.00000000E+00
  0.00000000E+00  0.00000000E+00  0.00000000E+00
  0.00000000E+00  0.00000000E+00  0.00000000E+00
  0.00000000E+00  0.00000000E+00  0.00000000E+00
  0.00000000E+00  0.00000000E+00  0.00000000E+00
  0.00000000E+00  0.00000000E+00  0.00000000E+00
  0.00000000E+00  0.00000000E+00  0.00000000E+00
  0.00000000E+00  0.00000000E+00  0.00000000E+00
  0.00000000E+00  0.00000000E+00  0.00000000E+00
  0.00000000E+00  0.00000000E+00  0.00000000E+00
  0.00000000E+00  0.00000000E+00  0.00000000E+00
  0.00000000E+00  0.00000000E+00  0.00000000E+00
  0.00000000E+00  0.00000000E+00  0.00000000E+00
  0.00000000E+00  0.00000000E+00  0.00000000E+00
