Ce12 C1 O25                             
   1.00000000000000     
     7.7074639999999999    0.0000000000000000    0.0000000000000000
    -3.8537319999999999    6.6748599999999998    0.0000000000000000
     0.0000000000000000    0.0000000000000000   28.3190309999999990
   Ce   O    C    O 
    12    24     1     1
Selective dynamics
Direct
  0.1666494375487433  0.3333663068014565  0.3873796645061180   T   T   T
  0.1666980682839571  0.8333031265172921  0.3872895375965053   T   T   T
  0.6666922014883546  0.3333097016726083  0.3872974055810715   T   T   T
  0.6666324335255515  0.8333500613066667  0.3873061980537446   T   T   T
 -0.0000115271276050  0.0003786092530164  0.6125899017379888   T   T   T
  0.0007387522939369  0.5009933233774548  0.6123023481200239   T   T   T
  0.5000473259932451  0.0003193628152944  0.6127512784925556   T   T   T
  0.5004438411317389  0.5013450363057577  0.6122875963232420   T   T   T
  0.3332222206036873  0.1664430443367240  0.4999959754952447   T   T   T
  0.3335132900194846  0.6669407935442691  0.4998296091239582   T   T   T
  0.8331921470389754  0.1663526859357704  0.4999843284286071   T   T   T
  0.8334714985199588  0.6670793239492784  0.4999278036395496   T   T   T
  0.1667223788194187  0.3334228684467496  0.4710675161869304   T   T   T
  0.1668982910605836  0.8333971395888203  0.4710187407979777   T   T   T
  0.6665648599431561  0.3331498829640723  0.4710095505719816   T   T   T
  0.6664951206487166  0.8333857211666125  0.4710464305746228   T   T   T
  0.0000025578603805 -0.0000242217384160  0.3589785783545730   T   T   T
 -0.0000096032555974  0.5000113065820884  0.3589697956701349   T   T   T
  0.4999917948119452  0.0000011070449421  0.3589711870621070   T   T   T
  0.5000195800188038  0.4999958290338888  0.3589737683549410   T   T   T
  0.3335527266876345  0.1659200334214238  0.5841329196613432   T   T   T
  0.3344948343818233  0.6682692107861088  0.5839540163373274   T   T   T
  0.8324247715060638  0.1651817733253978  0.5839698595565077   T   T   T
  0.8341949222233813  0.6699154532702108  0.5832300717598105   T   T   T
  0.0005255138822360  0.0007809241218129  0.5287265786301419   T   T   T
  0.0002207859787955  0.4998755940991330  0.5287903805374745   T   T   T
  0.4998918550449001 -0.0000101888446079  0.5291921942654600   T   T   T
  0.4995155883940860  0.4997479260390897  0.5288043102686666   T   T   T
  0.3333656774119385  0.1666045759458427  0.4159960476341678   T   T   T
  0.3333650635044028  0.6667570783924559  0.4160332761955207   T   T   T
  0.8332519862548281  0.1666247855886097  0.4160127376089942   T   T   T
  0.8333551097134375  0.6666721322965865  0.4159474205670077   T   T   T
  0.1669990140092605  0.3330261113659407  0.6412107754614693   T   T   T
  0.1660722249860749  0.8329674076427073  0.6409219370284347   T   T   T
  0.6711367321975528  0.3396664145266687  0.6392598512979449   T   T   T
  0.6661269287834634  0.8339274467048554  0.6413473220288304   T   T   T
  0.5012419822492381  0.1142501498228385  0.7658587730324103   T   T   T
  0.4922896135634486  0.0955241625905802  0.7257503134566080   T   T   T
 
  0.00000000E+00  0.00000000E+00  0.00000000E+00
  0.00000000E+00  0.00000000E+00  0.00000000E+00
  0.00000000E+00  0.00000000E+00  0.00000000E+00
  0.00000000E+00  0.00000000E+00  0.00000000E+00
  0.00000000E+00  0.00000000E+00  0.00000000E+00
  0.00000000E+00  0.00000000E+00  0.00000000E+00
  0.00000000E+00  0.00000000E+00  0.00000000E+00
  0.00000000E+00  0.00000000E+00  0.00000000E+00
  0.00000000E+00  0.00000000E+00  0.00000000E+00
  0.00000000E+00  0.00000000E+00  0.00000000E+00
  0.00000000E+00  0.00000000E+00  0.00000000E+00
  0.00000000E+00  0.00000000E+00  0.00000000E+00
  0.00000000E+00  0.00000000E+00  0.00000000E+00
  0.00000000E+00  0.00000000E+00  0.00000000E+00
  0.00000000E+00  0.00000000E+00  0.00000000E+00
  0.00000000E+00  0.00000000E+00  0.00000000E+00
  0.00000000E+00  0.00000000E+00  0.00000000E+00
  0.00000000E+00  0.00000000E+00  0.00000000E+00
  0.00000000E+00  0.00000000E+00  0.00000000E+00
  0.00000000E+00  0.00000000E+00  0.00000000E+00
  0.00000000E+00  0.00000000E+00  0.00000000E+00
  0.00000000E+00  0.00000000E+00  0.00000000E+00
  0.00000000E+00  0.00000000E+00  0.00000000E+00
  0.00000000E+00  0.00000000E+00  0.00000000E+00
  0.00000000E+00  0.00000000E+00  0.00000000E+00
  0.00000000E+00  0.00000000E+00  0.00000000E+00
  0.00000000E+00  0.00000000E+00  0.00000000E+00
  0.00000000E+00  0.00000000E+00  0.00000000E+00
  0.00000000E+00  0.00000000E+00  0.00000000E+00
  0.00000000E+00  0.00000000E+00  0.00000000E+00
  0.00000000E+00  0.00000000E+00  0.00000000E+00
  0.00000000E+00  0.00000000E+00  0.00000000E+00
  0.00000000E+00  0.00000000E+00  0.00000000E+00
  0.00000000E+00  0.00000000E+00  0.00000000E+00
  0.00000000E+00  0.00000000E+00  0.00000000E+00
  0.00000000E+00  0.00000000E+00  0.00000000E+00
  0.00000000E+00  0.00000000E+00  0.00000000E+00
  0.00000000E+00  0.00000000E+00  0.00000000E+00
