Ce12 C1 O25                             
   1.00000000000000     
     7.7074639999999999    0.0000000000000000    0.0000000000000000
    -3.8537319999999999    6.6748599999999998    0.0000000000000000
     0.0000000000000000    0.0000000000000000   28.3190309999999990
   Ce   O    C    O 
    12    24     1     1
Selective dynamics
Direct
  0.1666410666540706  0.3333833480400588  0.3873106085505870   T   T   T
  0.1666761660638945  0.8332829125921939  0.3872935564000533   T   T   T
  0.6667226299696941  0.3333384700603841  0.3872773796033802   T   T   T
  0.6666427463886662  0.8333523684167051  0.3873014993483091   T   T   T
 -0.0011578705407905 -0.0005653153464903  0.6123015569575905   T   T   T
 -0.0006255916085483  0.4992181624143432  0.6123589766261142   T   T   T
  0.5000588175298449 -0.0002935550022600  0.6124293872713322   T   T   T
  0.4997855480996715  0.4999433110651777  0.6126389677796351   T   T   T
  0.3334464867991984  0.1668204242822987  0.4999415750042591   T   T   T
  0.3335852808182012  0.6666319278210938  0.4999251538262471   T   T   T
  0.8332446063329555  0.1665742344298344  0.4997646038069756   T   T   T
  0.8329582984593207  0.6665656467436026  0.4999105722953200   T   T   T
  0.1665524295408475  0.3332762305404854  0.4710575512240789   T   T   T
  0.1668343382672131  0.8334246540204777  0.4710375284408417   T   T   T
  0.6666329270113249  0.3331115682432033  0.4710330975013752   T   T   T
  0.6666328267864742  0.8335239232601120  0.4710871684040842   T   T   T
  0.0000084994100340  0.0000029046897004  0.3589324080161326   T   T   T
 -0.0000077015530860  0.5000016354489027  0.3589258662884213   T   T   T
  0.5000039317671527  0.0000168078306431  0.3589341297979987   T   T   T
  0.5000099530127339  0.4999959319860473  0.3589352711995263   T   T   T
  0.3335098084309207  0.1662700985681702  0.5841979893385854   T   T   T
  0.3355215223109584  0.6669035473987132  0.5837307157257289   T   T   T
  0.8322719472898619  0.1651689454776439  0.5838567346668559   T   T   T
  0.8302721573247744  0.6664248032860667  0.5834073857518532   T   T   T
  0.0002672551118100  0.0004582395852212  0.5288508419229206   T   T   T
  0.0000470965950801  0.4998207760466699  0.5287767899430245   T   T   T
  0.5000482579007568  0.0002112136637801  0.5290231174811748   T   T   T
  0.4993785940296026  0.4993391316429428  0.5287227449838918   T   T   T
  0.3333683760161411  0.1666839678813047  0.4159419932766303   T   T   T
  0.3333445029047670  0.6666787160878705  0.4159810847385775   T   T   T
  0.8333119794031612  0.1666783241148286  0.4159969549290773   T   T   T
  0.8333174979623514  0.6666418339488780  0.4159369862787359   T   T   T
  0.1668025687187372  0.3326405079198755  0.6411707218391205   T   T   T
  0.1618015499012733  0.8271410410277052  0.6391666331291108   T   T   T
  0.6673194325958168  0.3337676529679594  0.6408415728946162   T   T   T
  0.6664725950816575  0.8341461683285438  0.6414413503139473   T   T   T
  0.3312752320605269  0.0537948840008339  0.7664511852429013   T   T   T
  0.3436902371529368  0.0667365565164845  0.7262243392009831   T   T   T
 
  0.00000000E+00  0.00000000E+00  0.00000000E+00
  0.00000000E+00  0.00000000E+00  0.00000000E+00
  0.00000000E+00  0.00000000E+00  0.00000000E+00
  0.00000000E+00  0.00000000E+00  0.00000000E+00
  0.00000000E+00  0.00000000E+00  0.00000000E+00
  0.00000000E+00  0.00000000E+00  0.00000000E+00
  0.00000000E+00  0.00000000E+00  0.00000000E+00
  0.00000000E+00  0.00000000E+00  0.00000000E+00
  0.00000000E+00  0.00000000E+00  0.00000000E+00
  0.00000000E+00  0.00000000E+00  0.00000000E+00
  0.00000000E+00  0.00000000E+00  0.00000000E+00
  0.00000000E+00  0.00000000E+00  0.00000000E+00
  0.00000000E+00  0.00000000E+00  0.00000000E+00
  0.00000000E+00  0.00000000E+00  0.00000000E+00
  0.00000000E+00  0.00000000E+00  0.00000000E+00
  0.00000000E+00  0.00000000E+00  0.00000000E+00
  0.00000000E+00  0.00000000E+00  0.00000000E+00
  0.00000000E+00  0.00000000E+00  0.00000000E+00
  0.00000000E+00  0.00000000E+00  0.00000000E+00
  0.00000000E+00  0.00000000E+00  0.00000000E+00
  0.00000000E+00  0.00000000E+00  0.00000000E+00
  0.00000000E+00  0.00000000E+00  0.00000000E+00
  0.00000000E+00  0.00000000E+00  0.00000000E+00
  0.00000000E+00  0.00000000E+00  0.00000000E+00
  0.00000000E+00  0.00000000E+00  0.00000000E+00
  0.00000000E+00  0.00000000E+00  0.00000000E+00
  0.00000000E+00  0.00000000E+00  0.00000000E+00
  0.00000000E+00  0.00000000E+00  0.00000000E+00
  0.00000000E+00  0.00000000E+00  0.00000000E+00
  0.00000000E+00  0.00000000E+00  0.00000000E+00
  0.00000000E+00  0.00000000E+00  0.00000000E+00
  0.00000000E+00  0.00000000E+00  0.00000000E+00
  0.00000000E+00  0.00000000E+00  0.00000000E+00
  0.00000000E+00  0.00000000E+00  0.00000000E+00
  0.00000000E+00  0.00000000E+00  0.00000000E+00
  0.00000000E+00  0.00000000E+00  0.00000000E+00
  0.00000000E+00  0.00000000E+00  0.00000000E+00
  0.00000000E+00  0.00000000E+00  0.00000000E+00
