C1 O25 Ce12
1
 7.707464  0.000000  0.000000
-3.853732  6.674860  0.000000
 0.000000  0.000000 28.319031
Ce O C O
12 24 1 1
Selective Dynamics
Direct
 0.166688  0.333238  0.386856	T   T   T
 0.166804  0.833298  0.386773	T   T   T
 0.666706  0.333162  0.386873	T   T   T
 0.666718  0.833326  0.386770	T   T   T
 0.000183 -0.000673  0.612352	T   T   T
 0.000346  0.501377  0.611430	T   T   T
 0.500521 -0.000084  0.611901	T   T   T
 0.501710  0.500879  0.611499	T   T   T
 0.333360  0.166284  0.499471	T   T   T
 0.333661  0.666755  0.499342	T   T   T
 0.833614  0.166308  0.499483	T   T   T
 0.833663  0.666809  0.499200	T   T   T
 0.166888  0.333140  0.470415	T   T   T
 0.166420  0.833041  0.470527	T   T   T
 0.667025  0.333680  0.470485	T   T   T
 0.667121  0.832957  0.470498	T   T   T
 0.000088  0.000168  0.358538	T   T   T
 0.000180  0.499787  0.358592	T   T   T
 0.500091 -0.000104  0.358532	T   T   T
 0.499825  0.499892  0.358612	T   T   T
 0.333826  0.165688  0.583288	T   T   T
 0.334269  0.668484  0.582824	T   T   T
 0.833599  0.166226  0.583409	T   T   T
 0.834191  0.667225  0.582907	T   T   T
 0.000485  0.000416  0.528458	T   T   T
 0.000145  0.499386  0.528191	T   T   T
 0.500889  0.000529  0.528084	T   T   T
 0.499887  0.499545  0.528288	T   T   T
 0.333490  0.166265  0.415569	T   T   T
 0.333554  0.666983  0.415570	T   T   T
 0.833085  0.166365  0.415591	T   T   T
 0.833570  0.666666  0.415406	T   T   T
 0.170328  0.336918  0.638921	T   T   T
 0.166012  0.832700  0.640116	T   T   T
 0.667942  0.334391  0.640104	T   T   T
 0.666830  0.832076  0.639911	T   T   T
 0.062054  0.228962  0.728000	T   T   T
 0.120888  0.383467  0.745006	T   T   T
