C1 O25 Ce12
1
 7.707464  0.000000  0.000000
-3.853732  6.674860  0.000000
 0.000000  0.000000 28.319031
Ce O C O
12 24 1 1
Selective Dynamics
Direct
 0.166703  0.333274  0.386777	T   T   T
 0.166660  0.833444  0.386836	T   T   T
 0.666497  0.333316  0.386887	T   T   T
 0.666615  0.833255  0.386761	T   T   T
-0.000136 -0.000195  0.613090	T   T   T
-0.000105  0.499699  0.612232	T   T   T
 0.500963 -0.000410  0.612060	T   T   T
 0.499809  0.499831  0.612168	T   T   T
 0.332646  0.166078  0.499706	T   T   T
 0.332934  0.666467  0.499544	T   T   T
 0.833528  0.166612  0.499591	T   T   T
 0.833391  0.666834  0.499685	T   T   T
 0.166170  0.333378  0.470447	T   T   T
 0.166316  0.832877  0.470532	T   T   T
 0.666919  0.333474  0.470480	T   T   T
 0.666485  0.833083  0.470628	T   T   T
 0.000110  0.000074  0.358332	T   T   T
-0.000019  0.499999  0.358448	T   T   T
 0.499898  0.000061  0.358389	T   T   T
 0.499902  0.499875  0.358403	T   T   T
 0.332055  0.165328  0.584033	T   T   T
 0.334518  0.666893  0.583274	T   T   T
 0.833421  0.165436  0.583669	T   T   T
 0.833204  0.667759  0.583829	T   T   T
 0.000195  0.000115  0.528664	T   T   T
-0.000599  0.499742  0.528703	T   T   T
 0.500151  0.000580  0.528478	T   T   T
 0.499439  0.498719  0.528599	T   T   T
 0.333100  0.166482  0.415590	T   T   T
 0.333474  0.666849  0.415467	T   T   T
 0.833112  0.166247  0.415471	T   T   T
 0.833329  0.666957  0.415489	T   T   T
 0.166948  0.334808  0.640568	T   T   T
 0.167548  0.829691  0.640537	T   T   T
 0.666740  0.333350  0.640421	T   T   T
 0.666344  0.833122  0.640939	T   T   T
 0.221240  0.042885  0.724115	T   T   T
 0.373109  0.075123  0.738948	T   T   T
