C1 O25 Ce12
1
 7.707464  0.000000  0.000000
-3.853732  6.674860  0.000000
 0.000000  0.000000 28.319031
Ce O C O
12 24 1 1
Selective Dynamics
Direct
 0.166683  0.333461  0.386720	T   T   T
 0.166668  0.833488  0.386742	T   T   T
 0.666660  0.333475  0.386684	T   T   T
 0.666659  0.833474  0.386714	T   T   T
-0.000839  0.000490  0.611528	T   T   T
 0.000122  0.500956  0.611877	T   T   T
 0.500181  0.001054  0.611818	T   T   T
 0.500032  0.501099  0.611980	T   T   T
 0.333418  0.167227  0.499281	T   T   T
 0.333395  0.667209  0.499288	T   T   T
 0.833225  0.167213  0.499195	T   T   T
 0.833288  0.666985  0.499238	T   T   T
 0.166525  0.333843  0.470346	T   T   T
 0.166432  0.833436  0.470327	T   T   T
 0.667023  0.333972  0.470355	T   T   T
 0.666714  0.833737  0.470391	T   T   T
 0.000164  0.000157  0.358398	T   T   T
 0.000012  0.500143  0.358427	T   T   T
 0.499892  0.000126  0.358407	T   T   T
 0.499924  0.499965  0.358385	T   T   T
 0.333130  0.167294  0.583332	T   T   T
 0.334192  0.668506  0.583165	T   T   T
 0.832512  0.166786  0.583073	T   T   T
 0.833346  0.667692  0.583181	T   T   T
 0.000026  0.000561  0.528352	T   T   T
 0.000092  0.500567  0.528478	T   T   T
 0.499823  0.000832  0.528321	T   T   T
 0.499969  0.500392  0.528400	T   T   T
 0.333397  0.166807  0.415497	T   T   T
 0.333529  0.667033  0.415484	T   T   T
 0.833178  0.166662  0.415478	T   T   T
 0.833245  0.666972  0.415408	T   T   T
 0.165591  0.335423  0.639598	T   T   T
 0.167335  0.834336  0.640160	T   T   T
 0.666772  0.334002  0.640187	T   T   T
 0.666874  0.834627  0.640240	T   T   T
 0.089993 -0.005564  0.737621	T   T   T
 0.218584  0.156651  0.735713	T   T   T
