C1 O25 Ce12
1
 7.707464  0.000000  0.000000
-3.853732  6.674860  0.000000
 0.000000  0.000000 28.319031
Ce O C O
12 24 1 1
Selective Dynamics
Direct
 0.166509  0.333278  0.386748	T   T   T
 0.166534  0.833357  0.386778	T   T   T
 0.666436  0.333250  0.386739	T   T   T
 0.666468  0.833329  0.386801	T   T   T
-0.001109 -0.000143  0.611520	T   T   T
-0.000743  0.499905  0.611710	T   T   T
 0.499931  0.000036  0.611679	T   T   T
 0.499350  0.500080  0.611967	T   T   T
 0.333113  0.166811  0.499323	T   T   T
 0.333073  0.666647  0.499350	T   T   T
 0.832952  0.166658  0.499279	T   T   T
 0.832786  0.666569  0.499306	T   T   T
 0.166287  0.333398  0.470439	T   T   T
 0.166320  0.833236  0.470459	T   T   T
 0.666452  0.333390  0.470493	T   T   T
 0.666404  0.833359  0.470469	T   T   T
 0.000020 -0.000008  0.358484	T   T   T
-0.000112  0.500050  0.358519	T   T   T
 0.499707 -0.000047  0.358494	T   T   T
 0.499751  0.499838  0.358461	T   T   T
 0.332761  0.166890  0.583195	T   T   T
 0.333449  0.667100  0.583087	T   T   T
 0.832288  0.165912  0.582862	T   T   T
 0.832651  0.666840  0.583179	T   T   T
-0.000281 -0.000076  0.528094	T   T   T
-0.000462  0.500058  0.528269	T   T   T
 0.499493  0.000120  0.528094	T   T   T
 0.499571  0.499835  0.528241	T   T   T
 0.333308  0.166803  0.415386	T   T   T
 0.333410  0.666707  0.415397	T   T   T
 0.832983  0.166505  0.415382	T   T   T
 0.832845  0.666592  0.415394	T   T   T
 0.164565  0.333664  0.639631	T   T   T
 0.166771  0.834078  0.640049	T   T   T
 0.666817  0.333328  0.639879	T   T   T
 0.666086  0.833252  0.640071	T   T   T
 0.209790  0.062523  0.742751	T   T   T
 0.333813  0.219077  0.731813	T   T   T
