C1 O25 Ce12
1
 7.707464  0.000000  0.000000
-3.853732  6.674860  0.000000
 0.000000  0.000000 28.319031
Ce O C O
12 24 1 1
Selective Dynamics
Direct
 0.164467  0.332272  0.387207	T   T   T
 0.164567  0.832333  0.387060	T   T   T
 0.664360  0.332144  0.387039	T   T   T
 0.664369  0.832303  0.387044	T   T   T
-0.004080 -0.001076  0.611801	T   T   T
-0.003747  0.498815  0.611881	T   T   T
 0.497550 -0.000901  0.613429	T   T   T
 0.496870  0.499288  0.611892	T   T   T
 0.331024  0.165265  0.499777	T   T   T
 0.330953  0.666183  0.499739	T   T   T
 0.830194  0.165424  0.499647	T   T   T
 0.830645  0.665627  0.499501	T   T   T
 0.164210  0.332324  0.470593	T   T   T
 0.163667  0.832102  0.470735	T   T   T
 0.664295  0.332807  0.470692	T   T   T
 0.664349  0.831897  0.470665	T   T   T
-0.002212 -0.000845  0.358824	T   T   T
-0.002135  0.498760  0.358792	T   T   T
 0.497847 -0.001095  0.358643	T   T   T
 0.497533  0.498866  0.358828	T   T   T
 0.331018  0.164139  0.583883	T   T   T
 0.330636  0.667474  0.583845	T   T   T
 0.828720  0.165244  0.583751	T   T   T
 0.829878  0.665910  0.582773	T   T   T
-0.002315  0.000202  0.528503	T   T   T
-0.002385  0.498492  0.528539	T   T   T
 0.497539 -0.001034  0.528405	T   T   T
 0.495924  0.498300  0.528596	T   T   T
 0.331261  0.165246  0.415795	T   T   T
 0.331296  0.666219  0.415796	T   T   T
 0.830390  0.165259  0.415786	T   T   T
 0.831041  0.665613  0.415600	T   T   T
 0.163634  0.332132  0.640302	T   T   T
 0.156880  0.828905  0.640630	T   T   T
 0.665517  0.336685  0.640406	T   T   T
 0.664410  0.831579  0.640449	T   T   T
 0.406282  0.011819  0.714285	T   T   T
 0.325156  0.025322  0.746658	T   T   T
