C1 O25 Ce12
1
 7.707464  0.000000  0.000000
-3.853732  6.674860  0.000000
 0.000000  0.000000 28.319031
Ce O C O
12 24 1 1
Selective Dynamics
Direct
 0.166631  0.333311  0.388288	T   T   T
 0.166658  0.833340  0.388275	T   T   T
 0.666693  0.333329  0.388282	T   T   T
 0.666702  0.833374  0.388284	T   T   T
 0.000710  0.001123  0.611481	T   T   T
 0.000502  0.499204  0.611070	T   T   T
 0.499609 -0.001541  0.611045	T   T   T
 0.499436  0.499913  0.610866	T   T   T
 0.333045  0.166455  0.500153	T   T   T
 0.333105  0.666600  0.499637	T   T   T
 0.833556  0.166647  0.500192	T   T   T
 0.833638  0.666942  0.499990	T   T   T
 0.166851  0.333517  0.470674	T   T   T
 0.166734  0.833280  0.470674	T   T   T
 0.666603  0.333388  0.470679	T   T   T
 0.666491  0.833161  0.470687	T   T   T
 0.000012  0.000006  0.359719	T   T   T
 0.000021  0.500014  0.359718	T   T   T
 0.499987 -0.000010  0.359719	T   T   T
 0.499991  0.500002  0.359720	T   T   T
 0.332221  0.166173  0.583305	T   T   T
 0.334067  0.666632  0.583163	T   T   T
 0.834362  0.164162  0.582944	T   T   T
 0.833633  0.669240  0.582973	T   T   T
 0.000056 -0.000205  0.529173	T   T   T
 0.000448  0.500419  0.529152	T   T   T
 0.499553 -0.000745  0.529256	T   T   T
 0.499885  0.500379  0.529281	T   T   T
 0.333322  0.166655  0.416595	T   T   T
 0.333327  0.666671  0.416614	T   T   T
 0.833344  0.166671  0.416589	T   T   T
 0.833353  0.666681  0.416600	T   T   T
 0.167785  0.333292  0.640485	T   T   T
 0.165639  0.833042  0.639803	T   T   T
 0.671905  0.334533  0.635492	T   T   T
 0.666241  0.832653  0.640187	T   T   T
 0.503896  0.168797  0.724483	T   T   T
 0.575535  0.337319  0.732545	T   T   T
