C1 O25 Ce12
1
 7.707464  0.000000  0.000000
-3.853732  6.674860  0.000000
 0.000000  0.000000 28.319031
Ce O C O
12 24 1 1
Selective Dynamics
Direct
 0.166662  0.333362  0.385881	T   T   T
 0.166865  0.833657  0.385945	T   T   T
 0.666730  0.333351  0.385864	T   T   T
 0.666853  0.833666  0.385983	T   T   T
 0.001952  0.002140  0.612515	T   T   T
 0.002310  0.503673  0.613929	T   T   T
 0.502085  0.002727  0.612529	T   T   T
 0.502187  0.502539  0.612659	T   T   T
 0.334288  0.167828  0.499103	T   T   T
 0.333635  0.667539  0.499265	T   T   T
 0.834552  0.168483  0.499233	T   T   T
 0.834257  0.667436  0.499248	T   T   T
 0.167186  0.333778  0.470067	T   T   T
 0.167460  0.834680  0.470099	T   T   T
 0.666986  0.333995  0.470057	T   T   T
 0.667483  0.834248  0.469857	T   T   T
-0.000034 -0.000110  0.357196	T   T   T
 0.000148  0.500288  0.357158	T   T   T
 0.499933 -0.000102  0.357157	T   T   T
 0.500142  0.500276  0.357204	T   T   T
 0.335760  0.168382  0.583260	T   T   T
 0.333421  0.668952  0.584116	T   T   T
 0.835583  0.170827  0.584164	T   T   T
 0.835867  0.668125  0.583870	T   T   T
 0.000398  0.001689  0.528623	T   T   T
 0.000961  0.500954  0.528549	T   T   T
 0.502136  0.001428  0.528611	T   T   T
 0.500861  0.501878  0.528471	T   T   T
 0.333437  0.166667  0.414769	T   T   T
 0.333387  0.667151  0.414844	T   T   T
 0.833418  0.166909  0.415010	T   T   T
 0.833846  0.667069  0.414744	T   T   T
 0.170308  0.334087  0.641319	T   T   T
 0.169222  0.838155  0.641035	T   T   T
 0.667394  0.335271  0.641704	T   T   T
 0.668868  0.836479  0.641259	T   T   T
-0.028894  0.399381  0.722969	T   T   T
 0.906803  0.270937  0.749523	T   T   T
