C1 O25 Ce12
1
 7.707464  0.000000  0.000000
-3.853732  6.674860  0.000000
 0.000000  0.000000 28.319031
Ce O C O
12 24 1 1
Selective Dynamics
Direct
 0.166667  0.333351  0.388287	T   T   T
 0.166690  0.833327  0.388287	T   T   T
 0.666663  0.333312  0.388282	T   T   T
 0.666640  0.833337  0.388290	T   T   T
-0.001207 -0.002135  0.610721	T   T   T
 0.000096  0.500288  0.611365	T   T   T
 0.500173  0.000547  0.611550	T   T   T
 0.500073  0.500210  0.611312	T   T   T
 0.333821  0.166879  0.500013	T   T   T
 0.333329  0.666743  0.500017	T   T   T
 0.833072  0.166934  0.499984	T   T   T
 0.833095  0.666092  0.499745	T   T   T
 0.166620  0.333211  0.470823	T   T   T
 0.166536  0.833362  0.470824	T   T   T
 0.666687  0.333407  0.470805	T   T   T
 0.666811  0.833340  0.470827	T   T   T
-0.000003 -0.000008  0.359883	T   T   T
-0.000012  0.499996  0.359882	T   T   T
 0.500001  0.000004  0.359882	T   T   T
 0.500009  0.499996  0.359883	T   T   T
 0.333184  0.165886  0.583171	T   T   T
 0.334823  0.669149  0.582851	T   T   T
 0.832165  0.165431  0.583099	T   T   T
 0.833394  0.667117  0.583178	T   T   T
-0.000252 -0.000442  0.529118	T   T   T
-0.000121  0.500098  0.529092	T   T   T
 0.500032  0.000068  0.529024	T   T   T
 0.500241  0.500123  0.529117	T   T   T
 0.333343  0.166677  0.416675	T   T   T
 0.333326  0.666655  0.416668	T   T   T
 0.833334  0.166678  0.416674	T   T   T
 0.833323  0.666644  0.416682	T   T   T
 0.168227  0.338821  0.636460	T   T   T
 0.167874  0.833994  0.639790	T   T   T
 0.666245  0.332952  0.640267	T   T   T
 0.666612  0.833799  0.639950	T   T   T
 0.052979  0.053102  0.725253	T   T   T
 0.142165  0.223254  0.730058	T   T   T
