C1 O25 Ce12
1
 7.707464  0.000000  0.000000
-3.853732  6.674860  0.000000
 0.000000  0.000000 28.319031
Ce O C O
12 24 1 1
Selective Dynamics
Direct
 0.166973  0.333691  0.385981	T   T   T
 0.166964  0.833926  0.386121	T   T   T
 0.666917  0.333753  0.385841	T   T   T
 0.667029  0.833840  0.386024	T   T   T
-0.000240 -0.001426  0.610832	T   T   T
-0.000061  0.498310  0.611001	T   T   T
 0.499713 -0.001805  0.611009	T   T   T
 0.499540  0.498341  0.611561	T   T   T
 0.333592  0.166437  0.498515	T   T   T
 0.333501  0.666064  0.498541	T   T   T
 0.833434  0.166236  0.498399	T   T   T
 0.833220  0.666034  0.498507	T   T   T
 0.166714  0.332908  0.469657	T   T   T
 0.166775  0.833209  0.469625	T   T   T
 0.666796  0.333089  0.469740	T   T   T
 0.667093  0.833284  0.469666	T   T   T
 0.000303  0.000460  0.357694	T   T   T
 0.000724  0.501037  0.357733	T   T   T
 0.500268  0.000275  0.357827	T   T   T
 0.500480  0.501087  0.357696	T   T   T
 0.333827  0.165895  0.582401	T   T   T
 0.333075  0.665037  0.582476	T   T   T
 0.832967  0.165524  0.582155	T   T   T
 0.832710  0.664633  0.582481	T   T   T
 0.000222 -0.000840  0.527401	T   T   T
 0.000184  0.499539  0.527334	T   T   T
 0.499734 -0.000910  0.527296	T   T   T
 0.500026  0.499291  0.527424	T   T   T
 0.333884  0.167335  0.414593	T   T   T
 0.333680  0.666867  0.414630	T   T   T
 0.833586  0.167236  0.414550	T   T   T
 0.833323  0.666607  0.414623	T   T   T
 0.165446  0.331100  0.639204	T   T   T
 0.166787  0.831948  0.639352	T   T   T
 0.666734  0.330866  0.639626	T   T   T
 0.666636  0.832105  0.639252	T   T   T
 0.505863  0.344997  0.740358	T   T   T
 0.528638  0.229576  0.760666	T   T   T
