C1 O25 Ce12
1
 7.707464  0.000000  0.000000
-3.853732  6.674860  0.000000
 0.000000  0.000000 28.319031
Ce O C O
12 24 1 1
Selective Dynamics
Direct
 0.166764  0.333387  0.386692	T   T   T
 0.166475  0.833236  0.386707	T   T   T
 0.666865  0.333633  0.386738	T   T   T
 0.666831  0.833209  0.386742	T   T   T
 0.000419  0.000221  0.612035	T   T   T
 0.000261  0.500635  0.611866	T   T   T
 0.500673  0.000691  0.612087	T   T   T
 0.501499  0.500223  0.611676	T   T   T
 0.333710  0.166654  0.499413	T   T   T
 0.334002  0.667347  0.499454	T   T   T
 0.833240  0.166668  0.499463	T   T   T
 0.833674  0.666963  0.499332	T   T   T
 0.166926  0.333198  0.470452	T   T   T
 0.166854  0.833831  0.470500	T   T   T
 0.666808  0.333467  0.470616	T   T   T
 0.667068  0.833597  0.470538	T   T   T
 0.000160  0.000208  0.358434	T   T   T
 0.000267  0.499986  0.358398	T   T   T
 0.499958 -0.000105  0.358343	T   T   T
 0.499776  0.499965  0.358398	T   T   T
 0.334622  0.167436  0.583304	T   T   T
 0.334064  0.666971  0.583599	T   T   T
 0.833516  0.167977  0.583348	T   T   T
 0.833732  0.665967  0.583198	T   T   T
 0.000412  0.000730  0.528293	T   T   T
 0.001217  0.500326  0.528138	T   T   T
 0.500190 -0.000087  0.528176	T   T   T
 0.499829  0.500229  0.528143	T   T   T
 0.333587  0.166760  0.415330	T   T   T
 0.333394  0.666758  0.415441	T   T   T
 0.833363  0.166771  0.415355	T   T   T
 0.833379  0.666613  0.415291	T   T   T
 0.166871  0.333240  0.640351	T   T   T
 0.166730  0.833709  0.640222	T   T   T
 0.667249  0.334284  0.640573	T   T   T
 0.669618  0.834648  0.639830	T   T   T
 0.348727  0.501239  0.741076	T   T   T
 0.389480  0.660509  0.730235	T   T   T
