C1 O25 Ce12
1
 7.707464  0.000000  0.000000
-3.853732  6.674860  0.000000
 0.000000  0.000000 28.319031
Ce O C O
12 24 1 1
Selective Dynamics
Direct
 0.166912  0.333703  0.386888	T   T   T
 0.167034  0.834110  0.386870	T   T   T
 0.667048  0.333834  0.386913	T   T   T
 0.667272  0.834158  0.386898	T   T   T
 0.000837  0.001339  0.611695	T   T   T
 0.001123  0.501393  0.611627	T   T   T
 0.500882  0.001230  0.611686	T   T   T
 0.500959  0.501937  0.611379	T   T   T
 0.334054  0.167677  0.499270	T   T   T
 0.333833  0.667500  0.499307	T   T   T
 0.833950  0.167759  0.499285	T   T   T
 0.833875  0.667383  0.499297	T   T   T
 0.167126  0.333908  0.470544	T   T   T
 0.167211  0.834335  0.470472	T   T   T
 0.667045  0.333984  0.470569	T   T   T
 0.667288  0.834266  0.470531	T   T   T
 0.000298  0.000457  0.358672	T   T   T
 0.000400  0.500657  0.358668	T   T   T
 0.500309  0.000472  0.358700	T   T   T
 0.500427  0.500678  0.358687	T   T   T
 0.334018  0.168004  0.583092	T   T   T
 0.333927  0.667552  0.583009	T   T   T
 0.834722  0.168302  0.583032	T   T   T
 0.834053  0.667813  0.583043	T   T   T
 0.000855  0.000891  0.528192	T   T   T
 0.000706  0.501247  0.528009	T   T   T
 0.500510  0.001039  0.528167	T   T   T
 0.500648  0.500936  0.528043	T   T   T
 0.333625  0.167127  0.415609	T   T   T
 0.333611  0.667285  0.415511	T   T   T
 0.833763  0.167290  0.415541	T   T   T
 0.833837  0.667326  0.415558	T   T   T
 0.167790  0.334572  0.640069	T   T   T
 0.167290  0.834471  0.639823	T   T   T
 0.667743  0.334375  0.639971	T   T   T
 0.667892  0.835678  0.639463	T   T   T
 0.489945  0.371746  0.738720	T   T   T
 0.572728  0.542434  0.734979	T   T   T
