C1 O25 Ce12
1
 7.707464  0.000000  0.000000
-3.853732  6.674860  0.000000
 0.000000  0.000000 28.319031
Ce O C O
12 24 1 1
Selective Dynamics
Direct
 0.166740  0.333378  0.387124	T   T   T
 0.166675  0.833333  0.387178	T   T   T
 0.666630  0.333366  0.387108	T   T   T
 0.666626  0.833269  0.387125	T   T   T
-0.001772 -0.000981  0.612078	T   T   T
-0.001436  0.497785  0.612116	T   T   T
 0.500260 -0.000757  0.612179	T   T   T
 0.499384  0.499200  0.612839	T   T   T
 0.333530  0.166994  0.499939	T   T   T
 0.333708  0.666425  0.499917	T   T   T
 0.833266  0.166626  0.499518	T   T   T
 0.832593  0.666332  0.499887	T   T   T
 0.166337  0.333062  0.471015	T   T   T
 0.166799  0.833504  0.471054	T   T   T
 0.666675  0.333000  0.471011	T   T   T
 0.666798  0.833709  0.471077	T   T   T
-0.000015  0.000041  0.358700	T   T   T
-0.000054  0.499930  0.358693	T   T   T
 0.500070  0.000067  0.358701	T   T   T
 0.500009  0.499978  0.358701	T   T   T
 0.333647  0.166837  0.584186	T   T   T
 0.336840  0.665661  0.583526	T   T   T
 0.832152  0.164941  0.583779	T   T   T
 0.827528  0.664929  0.583268	T   T   T
 0.000169  0.000571  0.528762	T   T   T
-0.000175  0.499526  0.528688	T   T   T
 0.500334  0.000466  0.528852	T   T   T
 0.499104  0.498732  0.528410	T   T   T
 0.333427  0.166796  0.415751	T   T   T
 0.333350  0.666596  0.415768	T   T   T
 0.833332  0.166727  0.415802	T   T   T
 0.833224  0.666555  0.415752	T   T   T
 0.166216  0.331918  0.641346	T   T   T
 0.160807  0.824864  0.637691	T   T   T
 0.665983  0.332027  0.641287	T   T   T
 0.666975  0.834821  0.641695	T   T   T
 0.274456 -0.004253  0.768710	T   T   T
 0.295365  0.024025  0.728883	T   T   T
