C1 O25 Ce12
1
 7.707464  0.000000  0.000000
-3.853732  6.674860  0.000000
 0.000000  0.000000 28.319031
Ce O C O
12 24 1 1
Selective Dynamics
Direct
 0.166766  0.333410  0.387220	T   T   T
 0.166623  0.833292  0.387222	T   T   T
 0.666677  0.333451  0.387131	T   T   T
 0.666646  0.833219  0.387128	T   T   T
-0.001726 -0.001522  0.612129	T   T   T
-0.000644  0.500110  0.612226	T   T   T
 0.499729 -0.000148  0.612405	T   T   T
 0.500386  0.500825  0.612707	T   T   T
 0.333372  0.166742  0.499945	T   T   T
 0.333586  0.666854  0.499856	T   T   T
 0.832996  0.166556  0.499751	T   T   T
 0.833134  0.666426  0.499683	T   T   T
 0.166589  0.333340  0.471004	T   T   T
 0.166474  0.833157  0.470930	T   T   T
 0.666855  0.333509  0.470885	T   T   T
 0.666675  0.833297  0.470963	T   T   T
 0.000050  0.000132  0.358784	T   T   T
 0.000033  0.499916  0.358780	T   T   T
 0.500053  0.000045  0.358744	T   T   T
 0.499913  0.499949  0.358754	T   T   T
 0.332887  0.167229  0.584156	T   T   T
 0.335155  0.667398  0.583627	T   T   T
 0.831592  0.165526  0.583591	T   T   T
 0.831979  0.666060  0.583749	T   T   T
-0.000120 -0.000487  0.528795	T   T   T
 0.000016  0.500227  0.528833	T   T   T
 0.499344  0.000441  0.528649	T   T   T
 0.500173  0.499632  0.528678	T   T   T
 0.333402  0.166788  0.415767	T   T   T
 0.333382  0.666612  0.415783	T   T   T
 0.833347  0.166692  0.415744	T   T   T
 0.833236  0.666607  0.415769	T   T   T
 0.163306  0.334359  0.639981	T   T   T
 0.166046  0.831383  0.640033	T   T   T
 0.666093  0.333001  0.641058	T   T   T
 0.667767  0.833882  0.640955	T   T   T
 0.292571  0.278492  0.726874	T   T   T
 0.185651  0.108058  0.729500	T   T   T
