C1 O25 Ce12
1
 7.707464  0.000000  0.000000
-3.853732  6.674860  0.000000
 0.000000  0.000000 28.319031
Ce O C O
12 24 1 1
Selective Dynamics
Direct
 0.166650  0.334484  0.386339	T   T   T
 0.166571  0.834507  0.386499	T   T   T
 0.666741  0.334551  0.386375	T   T   T
 0.666755  0.834545  0.386362	T   T   T
-0.000082  0.001893  0.611274	T   T   T
-0.000058  0.501552  0.611209	T   T   T
 0.500953  0.002948  0.611701	T   T   T
 0.500031  0.502088  0.611422	T   T   T
 0.333649  0.168093  0.498792	T   T   T
 0.333619  0.668144  0.498832	T   T   T
 0.833650  0.167977  0.498655	T   T   T
 0.833305  0.668030  0.498770	T   T   T
 0.167085  0.334946  0.469911	T   T   T
 0.166684  0.834443  0.470279	T   T   T
 0.666902  0.335063  0.470097	T   T   T
 0.666724  0.834252  0.470023	T   T   T
-0.000346  0.001016  0.357922	T   T   T
-0.000469  0.501027  0.358029	T   T   T
 0.500316  0.001488  0.358174	T   T   T
 0.500227  0.501284  0.357992	T   T   T
 0.333377  0.168050  0.582893	T   T   T
 0.334109  0.669209  0.582916	T   T   T
 0.833817  0.167575  0.582910	T   T   T
 0.832861  0.669335  0.582410	T   T   T
 0.000466  0.002210  0.527709	T   T   T
 0.000096  0.500815  0.527856	T   T   T
 0.501037  0.001993  0.527788	T   T   T
 0.499412  0.501092  0.527769	T   T   T
 0.333011  0.167469  0.415066	T   T   T
 0.333173  0.667986  0.414959	T   T   T
 0.833557  0.167790  0.415122	T   T   T
 0.833765  0.668198  0.415056	T   T   T
 0.167086  0.335189  0.639877	T   T   T
 0.164304  0.833901  0.639397	T   T   T
 0.668939  0.337189  0.639056	T   T   T
 0.666901  0.835596  0.640188	T   T   T
 0.424796 -0.045410  0.732079	T   T   T
 0.373731  0.818392  0.756081	T   T   T
