C1 O25 Ce12
1
 7.707464  0.000000  0.000000
-3.853732  6.674860  0.000000
 0.000000  0.000000 28.319031
Ce O C O
12 24 1 1
Selective Dynamics
Direct
 0.167311  0.333414  0.386769	T   T   T
 0.167033  0.833235  0.386839	T   T   T
 0.667349  0.333594  0.387089	T   T   T
 0.667305  0.833183  0.386800	T   T   T
-0.000149  0.000509  0.613298	T   T   T
 0.000244  0.501492  0.611706	T   T   T
 0.499368  0.000409  0.611644	T   T   T
 0.499967  0.500974  0.611750	T   T   T
 0.333331  0.166563  0.499593	T   T   T
 0.333724  0.667208  0.499402	T   T   T
 0.833870  0.166610  0.499686	T   T   T
 0.834060  0.667491  0.499573	T   T   T
 0.167243  0.334137  0.470360	T   T   T
 0.167376  0.833088  0.470360	T   T   T
 0.667364  0.333617  0.470194	T   T   T
 0.666696  0.833423  0.470396	T   T   T
 0.000802 -0.000104  0.358396	T   T   T
 0.000510  0.500171  0.358542	T   T   T
 0.500506  0.000148  0.358605	T   T   T
 0.500759  0.499763  0.358571	T   T   T
 0.331711  0.166741  0.583726	T   T   T
 0.333020  0.667553  0.582509	T   T   T
 0.834477  0.166124  0.583623	T   T   T
 0.833707  0.669033  0.583611	T   T   T
 0.000204 -0.000034  0.528641	T   T   T
-0.000708  0.500138  0.528428	T   T   T
 0.500861  0.001282  0.528612	T   T   T
 0.500855  0.500352  0.528472	T   T   T
 0.333659  0.166676  0.415638	T   T   T
 0.333820  0.666699  0.415530	T   T   T
 0.834083  0.166653  0.415742	T   T   T
 0.834067  0.666922  0.415630	T   T   T
 0.169282  0.339001  0.640434	T   T   T
 0.167319  0.833900  0.640361	T   T   T
 0.667075  0.333564  0.640089	T   T   T
 0.661285  0.831238  0.640071	T   T   T
-0.057706  0.072640  0.717573	T   T   T
 0.900151  0.134815  0.749527	T   T   T
