C1 O25 Ce12
1
 7.707464  0.000000  0.000000
-3.853732  6.674860  0.000000
 0.000000  0.000000 28.319031
Ce O C O
12 24 1 1
Selective Dynamics
Direct
 0.166708  0.333367  0.387116	T   T   T
 0.166697  0.833393  0.387140	T   T   T
 0.666660  0.333367  0.387116	T   T   T
 0.666672  0.833342  0.387232	T   T   T
 0.000538  0.001267  0.611903	T   T   T
 0.000603  0.501206  0.611755	T   T   T
 0.500729  0.001267  0.611903	T   T   T
 0.499958  0.499915  0.611606	T   T   T
 0.333348  0.166697  0.499451	T   T   T
 0.333573  0.667199  0.499455	T   T   T
 0.833559  0.167118  0.499487	T   T   T
 0.833625  0.667199  0.499455	T   T   T
 0.166666  0.333265  0.470531	T   T   T
 0.167045  0.834088  0.470404	T   T   T
 0.666600  0.333265  0.470531	T   T   T
 0.666891  0.833782  0.470608	T   T   T
-0.000161 -0.000053  0.358897	T   T   T
-0.000006  0.499989  0.358835	T   T   T
 0.500108 -0.000053  0.358897	T   T   T
 0.500083  0.500165  0.358948	T   T   T
 0.333836  0.167674  0.583143	T   T   T
 0.333227  0.667003  0.583297	T   T   T
 0.834397  0.168795  0.583175	T   T   T
 0.833775  0.667003  0.583297	T   T   T
 0.000025  0.000267  0.528608	T   T   T
 0.000671  0.501342  0.528308	T   T   T
 0.500242  0.000267  0.528608	T   T   T
 0.500254  0.500507  0.528595	T   T   T
 0.333429  0.166859  0.415738	T   T   T
 0.333359  0.666649  0.415878	T   T   T
 0.833382  0.166766  0.415830	T   T   T
 0.833289  0.666649  0.415878	T   T   T
 0.166962  0.334247  0.640133	T   T   T
 0.167350  0.834698  0.640168	T   T   T
 0.667286  0.334247  0.640133	T   T   T
 0.667888  0.835775  0.639432	T   T   T
 0.496029  0.492058  0.729899	T   T   T
 0.580249  0.660498  0.736402	T   T   T
