C1 O25 Ce12
1
 7.707464  0.000000  0.000000
-3.853732  6.674860  0.000000
 0.000000  0.000000 28.319031
Ce O C O
12 24 1 1
Selective Dynamics
Direct
 0.166805  0.333834  0.386842	T   T   T
 0.166846  0.833856  0.386741	T   T   T
 0.666777  0.333768  0.386733	T   T   T
 0.666800  0.833859  0.386728	T   T   T
 0.000001  0.000615  0.611589	T   T   T
 0.000458  0.501592  0.611530	T   T   T
 0.500429  0.001363  0.611627	T   T   T
 0.500675  0.501652  0.611572	T   T   T
 0.333635  0.167439  0.499215	T   T   T
 0.333736  0.667719  0.499139	T   T   T
 0.833449  0.167399  0.499196	T   T   T
 0.833510  0.667293  0.499105	T   T   T
 0.166904  0.334076  0.470395	T   T   T
 0.167084  0.833995  0.470207	T   T   T
 0.666852  0.333912  0.470141	T   T   T
 0.666686  0.834043  0.470211	T   T   T
 0.000094  0.000486  0.358594	T   T   T
 0.000212  0.500592  0.358612	T   T   T
 0.500136  0.000441  0.358520	T   T   T
 0.500149  0.500636  0.358602	T   T   T
 0.333694  0.167777  0.583014	T   T   T
 0.334214  0.668663  0.582783	T   T   T
 0.833392  0.167664  0.582975	T   T   T
 0.833606  0.667664  0.582967	T   T   T
 0.000073  0.000515  0.528164	T   T   T
 0.000105  0.500839  0.528063	T   T   T
 0.500533  0.001670  0.527965	T   T   T
 0.500483  0.500829  0.528069	T   T   T
 0.333455  0.167181  0.415428	T   T   T
 0.333530  0.667266  0.415379	T   T   T
 0.833495  0.167184  0.415429	T   T   T
 0.833503  0.667205  0.415438	T   T   T
 0.167332  0.335398  0.639750	T   T   T
 0.167040  0.834439  0.639686	T   T   T
 0.666893  0.334338  0.639827	T   T   T
 0.667200  0.834521  0.639713	T   T   T
 0.168884  0.260528  0.742046	T   T   T
 0.069119  0.092216  0.735794	T   T   T
