C1 O25 Ce12
1
 7.707464  0.000000  0.000000
-3.853732  6.674860  0.000000
 0.000000  0.000000 28.319031
Ce O C O
12 24 1 1
Selective Dynamics
Direct
 0.166659  0.333389  0.387353	T   T   T
 0.167011  0.833445  0.387315	T   T   T
 0.666538  0.333004  0.387248	T   T   T
 0.666459  0.833493  0.387219	T   T   T
-0.000477 -0.001218  0.612043	T   T   T
-0.001250  0.501015  0.611732	T   T   T
 0.499499 -0.000186  0.612385	T   T   T
 0.500123  0.500105  0.612146	T   T   T
 0.333181  0.166563  0.499874	T   T   T
 0.333500  0.666763  0.499732	T   T   T
 0.833272  0.166497  0.499827	T   T   T
 0.833210  0.666851  0.499669	T   T   T
 0.166641  0.333536  0.471419	T   T   T
 0.166928  0.833279  0.471249	T   T   T
 0.666651  0.333136  0.471196	T   T   T
 0.666383  0.833393  0.471231	T   T   T
-0.000054 -0.000065  0.359063	T   T   T
-0.000035  0.500019  0.359058	T   T   T
 0.500025 -0.000003  0.359024	T   T   T
 0.500073  0.500051  0.359050	T   T   T
 0.331924  0.164165  0.583349	T   T   T
 0.333466  0.668204  0.583663	T   T   T
 0.832317  0.166342  0.583653	T   T   T
 0.834041  0.667758  0.583421	T   T   T
-0.000469 -0.000085  0.528413	T   T   T
 0.000027  0.500143  0.528545	T   T   T
 0.500154 -0.000213  0.528674	T   T   T
 0.499847  0.500158  0.528690	T   T   T
 0.333406  0.166705  0.416020	T   T   T
 0.333479  0.666738  0.416090	T   T   T
 0.833224  0.166556  0.416042	T   T   T
 0.833221  0.666667  0.415881	T   T   T
 0.167554  0.333261  0.639318	T   T   T
 0.165938  0.832126  0.640748	T   T   T
 0.663248  0.333523  0.639116	T   T   T
 0.667215  0.833950  0.640866	T   T   T
 0.055832  0.330327  0.733063	T   T   T
 0.914183  0.337275  0.724403	T   T   T
