C1 O25 Ce12
1
 7.707464  0.000000  0.000000
-3.853732  6.674860  0.000000
 0.000000  0.000000 28.319031
Ce O C O
12 24 1 1
Selective Dynamics
Direct
 0.166301  0.331393  0.386833	T   T   T
 0.166217  0.831427  0.386983	T   T   T
 0.666143  0.331411  0.386856	T   T   T
 0.666197  0.831320  0.386841	T   T   T
-0.001264 -0.003346  0.611765	T   T   T
-0.000800  0.496782  0.611844	T   T   T
 0.499271 -0.003702  0.611709	T   T   T
 0.499037  0.496999  0.612872	T   T   T
 0.332947  0.164747  0.499565	T   T   T
 0.332823  0.664060  0.499484	T   T   T
 0.832751  0.164287  0.499357	T   T   T
 0.832343  0.664070  0.499532	T   T   T
 0.165826  0.330927  0.470475	T   T   T
 0.166077  0.831083  0.470401	T   T   T
 0.666218  0.330980  0.470497	T   T   T
 0.666299  0.831378  0.470509	T   T   T
-0.000247 -0.001969  0.358572	T   T   T
-0.000356  0.498276  0.358604	T   T   T
 0.499339 -0.001946  0.358603	T   T   T
 0.499551  0.498003  0.358441	T   T   T
 0.333462  0.165287  0.583539	T   T   T
 0.333088  0.663048  0.583466	T   T   T
 0.832285  0.163079  0.582799	T   T   T
 0.831130  0.662976  0.583486	T   T   T
-0.000071 -0.002787  0.528324	T   T   T
-0.000405  0.498000  0.528362	T   T   T
 0.498578 -0.002841  0.528300	T   T   T
 0.499226  0.497431  0.528408	T   T   T
 0.333019  0.164962  0.415583	T   T   T
 0.333023  0.664558  0.415525	T   T   T
 0.832839  0.164686  0.415459	T   T   T
 0.832575  0.664516  0.415534	T   T   T
 0.163016  0.328787  0.640177	T   T   T
 0.165944  0.830626  0.640029	T   T   T
 0.667765  0.328532  0.640253	T   T   T
 0.666042  0.830867  0.640297	T   T   T
 0.436875  0.311030  0.724116	T   T   T
 0.390281  0.165529  0.744392	T   T   T
