C1 O25 Ce12
1
 7.707464  0.000000  0.000000
-3.853732  6.674860  0.000000
 0.000000  0.000000 28.319031
Ce O C O
12 24 1 1
Selective Dynamics
Direct
 0.166810  0.333212  0.387385	T   T   T
 0.167040  0.833418  0.387437	T   T   T
 0.666766  0.333090  0.387444	T   T   T
 0.666848  0.833383  0.387408	T   T   T
 0.001060 -0.000405  0.611804	T   T   T
 0.000851  0.499471  0.611993	T   T   T
 0.500939 -0.000505  0.611484	T   T   T
 0.500466  0.499232  0.611890	T   T   T
 0.333978  0.166751  0.499647	T   T   T
 0.333786  0.665730  0.499588	T   T   T
 0.834929  0.167022  0.499537	T   T   T
 0.834345  0.666300  0.499652	T   T   T
 0.167590  0.333216  0.470881	T   T   T
 0.167089  0.833092  0.471144	T   T   T
 0.667466  0.333679  0.471077	T   T   T
 0.667572  0.832637  0.471004	T   T   T
-0.000022  0.000263  0.359152	T   T   T
 0.000139  0.499632  0.359082	T   T   T
 0.500366 -0.000004  0.359113	T   T   T
 0.499908  0.499987  0.359209	T   T   T
 0.333607  0.165750  0.583518	T   T   T
 0.333160  0.665730  0.583619	T   T   T
 0.834884  0.167208  0.583658	T   T   T
 0.835721  0.666357  0.583285	T   T   T
 0.001049  0.000640  0.528182	T   T   T
 0.001402  0.499217  0.528269	T   T   T
 0.501080 -0.000329  0.528323	T   T   T
 0.500253  0.499453  0.528239	T   T   T
 0.333610  0.166340  0.415731	T   T   T
 0.333346  0.666723  0.415845	T   T   T
 0.833542  0.166750  0.415969	T   T   T
 0.834030  0.666530  0.415642	T   T   T
 0.167681  0.332701  0.640623	T   T   T
 0.168335  0.832926  0.640211	T   T   T
 0.667269  0.332967  0.639857	T   T   T
 0.668216  0.832669  0.640061	T   T   T
 0.005549  0.329275  0.769620	T   T   T
-0.030662  0.346558  0.731533	T   T   T
