C1 O25 Ce12
1
 7.707464  0.000000  0.000000
-3.853732  6.674860  0.000000
 0.000000  0.000000 28.319031
Ce O C O
12 24 1 1
Selective Dynamics
Direct
 0.166970  0.333669  0.386024	T   T   T
 0.167385  0.833952  0.386246	T   T   T
 0.666917  0.333425  0.386272	T   T   T
 0.666952  0.833983  0.386249	T   T   T
 0.001757  0.002253  0.611875	T   T   T
 0.001833  0.501307  0.611698	T   T   T
 0.501247  0.001369  0.611685	T   T   T
 0.500780  0.501304  0.611644	T   T   T
 0.334067  0.168003  0.499021	T   T   T
 0.334041  0.667128  0.498980	T   T   T
 0.834782  0.167947  0.499036	T   T   T
 0.834392  0.667784  0.499035	T   T   T
 0.167638  0.334383  0.469632	T   T   T
 0.166934  0.833930  0.470271	T   T   T
 0.667833  0.334864  0.470253	T   T   T
 0.667802  0.833924  0.470267	T   T   T
 0.000464  0.000885  0.357893	T   T   T
 0.000297  0.499849  0.357926	T   T   T
 0.500447  0.000490  0.357967	T   T   T
 0.499881  0.499990  0.357950	T   T   T
 0.333928  0.168722  0.582972	T   T   T
 0.333979  0.666885  0.582865	T   T   T
 0.836130  0.168814  0.583012	T   T   T
 0.834893  0.668286  0.582750	T   T   T
 0.001687  0.002506  0.527714	T   T   T
 0.001547  0.500448  0.527783	T   T   T
 0.501128  0.001225  0.527868	T   T   T
 0.500120  0.500639  0.527882	T   T   T
 0.334175  0.166494  0.415013	T   T   T
 0.334301  0.668304  0.415008	T   T   T
 0.832810  0.166593  0.415033	T   T   T
 0.834054  0.667436  0.414719	T   T   T
 0.169612  0.336565  0.640448	T   T   T
 0.168388  0.834856  0.639867	T   T   T
 0.668149  0.335217  0.639760	T   T   T
 0.667725  0.834456  0.639753	T   T   T
 0.125998  0.293891  0.780917	T   T   T
 0.061179  0.223780  0.744826	T   T   T
