C1 O25 Ce12
1
 7.707464  0.000000  0.000000
-3.853732  6.674860  0.000000
 0.000000  0.000000 28.319031
Ce O C O
12 24 1 1
Selective Dynamics
Direct
 0.166751  0.333247  0.387299	T   T   T
 0.166856  0.833237  0.387325	T   T   T
 0.666495  0.332971  0.387286	T   T   T
 0.666465  0.833181  0.387333	T   T   T
-0.000660 -0.000538  0.611595	T   T   T
-0.000408  0.498885  0.611729	T   T   T
 0.499374 -0.000919  0.611582	T   T   T
 0.500503  0.499480  0.611593	T   T   T
 0.333066  0.166329  0.499494	T   T   T
 0.332930  0.665875  0.499480	T   T   T
 0.833241  0.166293  0.499474	T   T   T
 0.833010  0.665925  0.499471	T   T   T
 0.166565  0.333027  0.470870	T   T   T
 0.166469  0.832688  0.470921	T   T   T
 0.666422  0.332858  0.470903	T   T   T
 0.666274  0.832723  0.470990	T   T   T
 0.000119 -0.000146  0.358984	T   T   T
 0.000162  0.500050  0.359006	T   T   T
 0.499823 -0.000234  0.358945	T   T   T
 0.499899  0.499867  0.358914	T   T   T
 0.333561  0.166906  0.583383	T   T   T
 0.333516  0.665719  0.583379	T   T   T
 0.832395  0.165790  0.583166	T   T   T
 0.832269  0.665389  0.583294	T   T   T
-0.000059 -0.000437  0.528105	T   T   T
-0.000011  0.499377  0.528200	T   T   T
 0.499619 -0.000384  0.528291	T   T   T
 0.499467  0.499210  0.528140	T   T   T
 0.333368  0.166564  0.415817	T   T   T
 0.333349  0.666394  0.415871	T   T   T
 0.833291  0.166479  0.415723	T   T   T
 0.833092  0.666297  0.415633	T   T   T
 0.163685  0.331020  0.639589	T   T   T
 0.166434  0.832516  0.639947	T   T   T
 0.666381  0.331919  0.639558	T   T   T
 0.665828  0.832539  0.639981	T   T   T
 0.283546  0.454131  0.736113	T   T   T
 0.430635  0.454660  0.730406	T   T   T
