C1 O25 Ce12
1
 7.707464  0.000000  0.000000
-3.853732  6.674860  0.000000
 0.000000  0.000000 28.319031
Ce O C O
12 24 1 1
Selective Dynamics
Direct
 0.166712  0.333376  0.387337	T   T   T
 0.166696  0.833401  0.387021	T   T   T
 0.666738  0.333434  0.387062	T   T   T
 0.666748  0.833395  0.387083	T   T   T
 0.000898 -0.000068  0.611920	T   T   T
 0.001105  0.501779  0.612034	T   T   T
 0.501505  0.001450  0.611919	T   T   T
 0.501637  0.501521  0.611849	T   T   T
 0.333929  0.167395  0.499409	T   T   T
 0.333779  0.667206  0.499423	T   T   T
 0.834164  0.167492  0.499484	T   T   T
 0.833459  0.666707  0.499466	T   T   T
 0.167472  0.334170  0.470711	T   T   T
 0.166485  0.833120  0.470696	T   T   T
 0.667298  0.334958  0.470475	T   T   T
 0.666774  0.832638  0.470612	T   T   T
 0.000127  0.000153  0.359076	T   T   T
 0.000182  0.500052  0.359094	T   T   T
 0.499966 -0.000026  0.358979	T   T   T
 0.499875  0.500004  0.359133	T   T   T
 0.335645  0.167632  0.583427	T   T   T
 0.334431  0.668201  0.583666	T   T   T
 0.833708  0.167855  0.583561	T   T   T
 0.833941  0.666846  0.582984	T   T   T
 0.000747  0.000869  0.528295	T   T   T
 0.001009  0.500409  0.528366	T   T   T
 0.501824  0.001612  0.527758	T   T   T
 0.499744  0.500523  0.528466	T   T   T
 0.333324  0.166529  0.415672	T   T   T
 0.333396  0.666952  0.415726	T   T   T
 0.833357  0.166679  0.415683	T   T   T
 0.833638  0.666965  0.415636	T   T   T
 0.167911  0.333251  0.640069	T   T   T
 0.166175  0.833556  0.640207	T   T   T
 0.668413  0.336448  0.640035	T   T   T
 0.667934  0.832790  0.639968	T   T   T
 0.093952  0.323575  0.731402	T   T   T
 0.021979  0.152730  0.734083	T   T   T
