C1 O25 Ce12
1
 7.707464  0.000000  0.000000
-3.853732  6.674860  0.000000
 0.000000  0.000000 28.319031
Ce O C O
12 24 1 1
Selective Dynamics
Direct
 0.166643  0.333336  0.388314	T   T   T
 0.166681  0.833326  0.388306	T   T   T
 0.666682  0.333311  0.388310	T   T   T
 0.666665  0.833360  0.388321	T   T   T
-0.000729 -0.000850  0.611075	T   T   T
-0.000003  0.500473  0.611300	T   T   T
 0.499334 -0.000447  0.611652	T   T   T
 0.501724  0.501435  0.610569	T   T   T
 0.333310  0.166172  0.500018	T   T   T
 0.333091  0.667056  0.500075	T   T   T
 0.833081  0.166696  0.500019	T   T   T
 0.833854  0.666748  0.499779	T   T   T
 0.166802  0.333327  0.470875	T   T   T
 0.166564  0.833352  0.470853	T   T   T
 0.666605  0.333477  0.470867	T   T   T
 0.666700  0.833174  0.470880	T   T   T
 0.000004 -0.000011  0.359913	T   T   T
-0.000005  0.500007  0.359912	T   T   T
 0.499996  0.000003  0.359912	T   T   T
 0.500012  0.499998  0.359915	T   T   T
 0.334215  0.166541  0.583140	T   T   T
 0.335007  0.668707  0.583064	T   T   T
 0.830413  0.164515  0.582849	T   T   T
 0.833048  0.667012  0.583048	T   T   T
-0.000096 -0.000250  0.528977	T   T   T
-0.000191  0.500068  0.529006	T   T   T
 0.499936  0.000092  0.528992	T   T   T
 0.500433  0.500166  0.529019	T   T   T
 0.333336  0.166657  0.416645	T   T   T
 0.333322  0.666668  0.416640	T   T   T
 0.833335  0.166677  0.416636	T   T   T
 0.833349  0.666662  0.416653	T   T   T
 0.162403  0.332692  0.635936	T   T   T
 0.167072  0.834402  0.640263	T   T   T
 0.667528  0.333213  0.639190	T   T   T
 0.666361  0.832615  0.640184	T   T   T
 0.391015  0.333966  0.726447	T   T   T
 0.242110  0.332323  0.730234	T   T   T
