C1 O25 Ce12
1
 7.707464  0.000000  0.000000
-3.853732  6.674860  0.000000
 0.000000  0.000000 28.319031
Ce O C O
12 24 1 1
Selective Dynamics
Direct
 0.166646  0.333306  0.388129	T   T   T
 0.166810  0.833424  0.388050	T   T   T
 0.666593  0.333176  0.388096	T   T   T
 0.666617  0.833431  0.388065	T   T   T
-0.000751 -0.001122  0.610904	T   T   T
-0.001555  0.500430  0.610703	T   T   T
 0.499801 -0.000007  0.612001	T   T   T
 0.501676  0.500587  0.610581	T   T   T
 0.333512  0.165993  0.500098	T   T   T
 0.333732  0.667620  0.499992	T   T   T
 0.832474  0.166072  0.500111	T   T   T
 0.833587  0.666983  0.499389	T   T   T
 0.166777  0.333425  0.470922	T   T   T
 0.166410  0.833178  0.470849	T   T   T
 0.666756  0.333645  0.470877	T   T   T
 0.666720  0.833094  0.470857	T   T   T
-0.000030 -0.000064  0.359517	T   T   T
-0.000017  0.500041  0.359519	T   T   T
 0.499989 -0.000015  0.359514	T   T   T
 0.500055  0.500039  0.359521	T   T   T
 0.335939  0.164912  0.583106	T   T   T
 0.336052  0.671307  0.582956	T   T   T
 0.827567  0.163931  0.582881	T   T   T
 0.832972  0.666471  0.582910	T   T   T
-0.000257 -0.000639  0.528936	T   T   T
-0.000262  0.500451  0.528769	T   T   T
 0.499732 -0.000201  0.528841	T   T   T
 0.500743  0.500400  0.528813	T   T   T
 0.333335  0.166587  0.416349	T   T   T
 0.333368  0.666766  0.416339	T   T   T
 0.833259  0.166604  0.416341	T   T   T
 0.833369  0.666711  0.416341	T   T   T
 0.164941  0.333305  0.634673	T   T   T
 0.165785  0.833245  0.640258	T   T   T
 0.666595  0.334140  0.640569	T   T   T
 0.667866  0.833141  0.640104	T   T   T
 0.276042  0.496806  0.726475	T   T   T
 0.197162  0.331739  0.735431	T   T   T
