C1 O25 Ce12
1
 7.707464  0.000000  0.000000
-3.853732  6.674860  0.000000
 0.000000  0.000000 28.319031
Ce O C O
12 24 1 1
Selective Dynamics
Direct
 0.167291  0.333957  0.386481	T   T   T
 0.167424  0.834008  0.386460	T   T   T
 0.667299  0.333858  0.386441	T   T   T
 0.667291  0.834052  0.386445	T   T   T
 0.001874  0.001387  0.611237	T   T   T
 0.001405  0.501042  0.611221	T   T   T
 0.501501  0.000956  0.611341	T   T   T
 0.501283  0.501160  0.611131	T   T   T
 0.334336  0.167541  0.498976	T   T   T
 0.334147  0.667438  0.498897	T   T   T
 0.834515  0.167668  0.498916	T   T   T
 0.834436  0.667593  0.498907	T   T   T
 0.167496  0.334266  0.469884	T   T   T
 0.167634  0.834037  0.469931	T   T   T
 0.667654  0.334152  0.469905	T   T   T
 0.667568  0.834209  0.469852	T   T   T
 0.000594  0.000580  0.358246	T   T   T
 0.000682  0.500588  0.358197	T   T   T
 0.500597  0.000416  0.358210	T   T   T
 0.500553  0.500690  0.358211	T   T   T
 0.334646  0.167800  0.582606	T   T   T
 0.334791  0.667772  0.582464	T   T   T
 0.834845  0.167128  0.582555	T   T   T
 0.834501  0.668232  0.582480	T   T   T
 0.001455  0.001090  0.527669	T   T   T
 0.000895  0.500922  0.527773	T   T   T
 0.501203  0.001064  0.527788	T   T   T
 0.501068  0.500856  0.527669	T   T   T
 0.334110  0.167318  0.415124	T   T   T
 0.333917  0.667315  0.415059	T   T   T
 0.834057  0.167535  0.415058	T   T   T
 0.834130  0.667220  0.415058	T   T   T
 0.168134  0.334922  0.639598	T   T   T
 0.167852  0.834008  0.639347	T   T   T
 0.668770  0.334464  0.639141	T   T   T
 0.667575  0.833808  0.639564	T   T   T
 0.413338  0.496152  0.744568	T   T   T
 0.412455  0.643887  0.745380	T   T   T
