C1 O25 Ce12
1
 7.707464  0.000000  0.000000
-3.853732  6.674860  0.000000
 0.000000  0.000000 28.319031
Ce O C O
12 24 1 1
Selective Dynamics
Direct
 0.166667  0.333333  0.388838	T   T   T
 0.166667  0.833333  0.388838	T   T   T
 0.666667  0.333333  0.388839	T   T   T
 0.666667  0.833333  0.388838	T   T   T
-0.000137 -0.000206  0.611129	T   T   T
-0.000130  0.500036  0.611159	T   T   T
 0.500030  0.000043  0.611177	T   T   T
 0.500243  0.500092  0.611142	T   T   T
 0.333337  0.166666  0.499995	T   T   T
 0.333333  0.666669  0.499996	T   T   T
 0.833329  0.166668  0.499997	T   T   T
 0.833333  0.666664  0.499999	T   T   T
 0.166667  0.333332  0.472153	T   T   T
 0.166666  0.833334  0.472153	T   T   T
 0.666667  0.333333  0.472153	T   T   T
 0.666668  0.833333  0.472153	T   T   T
 0.000001  0.000000  0.361079	T   T   T
-0.000000  0.500000  0.361079	T   T   T
 0.500000  0.000001  0.361079	T   T   T
 0.500000  0.499999  0.361079	T   T   T
 0.333306  0.166684  0.583301	T   T   T
 0.333323  0.666633  0.583302	T   T   T
 0.833364  0.166669  0.583298	T   T   T
 0.833334  0.666678  0.583296	T   T   T
 0.000002  0.000001  0.527854	T   T   T
 0.000001  0.500000  0.527851	T   T   T
 0.499999 -0.000000  0.527849	T   T   T
 0.499998  0.499999  0.527853	T   T   T
 0.333333  0.166667  0.416706	T   T   T
 0.333332  0.666666  0.416705	T   T   T
 0.833333  0.166668  0.416705	T   T   T
 0.833333  0.666666  0.416705	T   T   T
 0.166571  0.333422  0.638820	T   T   T
 0.166649  0.833333  0.638913	T   T   T
 0.666692  0.333355  0.638891	T   T   T
 0.666668  0.833312  0.638912	T   T   T
 0.165766  0.277730  0.723983	T   T   T
 0.315825  0.277776  0.723972	T   T   T
