C1 O25 Ce12
1
 7.707464  0.000000  0.000000
-3.853732  6.674860  0.000000
 0.000000  0.000000 28.319031
Ce O C O
12 24 1 1
Selective Dynamics
Direct
 0.166621  0.333299  0.387293	T   T   T
 0.166610  0.833313  0.387285	T   T   T
 0.666710  0.333363  0.387304	T   T   T
 0.666721  0.833351  0.387380	T   T   T
 0.000274 -0.000726  0.612306	T   T   T
 0.000264  0.499951  0.612751	T   T   T
 0.500383  0.000024  0.612590	T   T   T
 0.500890  0.499538  0.612291	T   T   T
 0.333610  0.166532  0.499927	T   T   T
 0.333237  0.666781  0.499995	T   T   T
 0.833156  0.166790  0.499980	T   T   T
 0.833418  0.666492  0.499825	T   T   T
 0.166584  0.333405  0.471012	T   T   T
 0.166495  0.833127  0.471023	T   T   T
 0.666874  0.333497  0.471047	T   T   T
 0.666725  0.833288  0.471061	T   T   T
-0.000023 -0.000007  0.358955	T   T   T
-0.000013  0.499990  0.358952	T   T   T
 0.500013 -0.000001  0.358968	T   T   T
 0.500008  0.500012  0.358963	T   T   T
 0.335750  0.165781  0.583226	T   T   T
 0.332391  0.666482  0.584142	T   T   T
 0.832715  0.167550  0.583973	T   T   T
 0.833770  0.665506  0.583952	T   T   T
-0.000337 -0.000216  0.528789	T   T   T
 0.000074  0.500097  0.529194	T   T   T
 0.500267 -0.000500  0.528733	T   T   T
 0.500245  0.500469  0.528806	T   T   T
 0.333347  0.166666  0.415954	T   T   T
 0.333291  0.666653  0.415989	T   T   T
 0.833337  0.166713  0.416009	T   T   T
 0.833346  0.666629  0.416031	T   T   T
 0.168542  0.328844  0.639270	T   T   T
 0.166927  0.833946  0.640938	T   T   T
 0.667788  0.333843  0.641361	T   T   T
 0.666007  0.833011  0.641225	T   T   T
 0.113007  0.498762  0.765864	T   T   T
 0.103196  0.507746  0.725754	T   T   T
