C1 O25 Ce12
1
 7.707464  0.000000  0.000000
-3.853732  6.674860  0.000000
 0.000000  0.000000 28.319031
Ce O C O
12 24 1 1
Selective Dynamics
Direct
 0.166665  0.333289  0.387073	T   T   T
 0.166632  0.833345  0.386986	T   T   T
 0.666630  0.333335  0.386946	T   T   T
 0.666675  0.833303  0.387026	T   T   T
-0.001911 -0.001816  0.612008	T   T   T
-0.001465  0.499387  0.612253	T   T   T
 0.499003 -0.000862  0.612706	T   T   T
 0.501285  0.500257  0.612010	T   T   T
 0.333717  0.166389  0.499989	T   T   T
 0.333549  0.667185  0.500052	T   T   T
 0.832347  0.166236  0.499946	T   T   T
 0.833440  0.666549  0.499539	T   T   T
 0.166883  0.333571  0.471215	T   T   T
 0.166766  0.833206  0.470935	T   T   T
 0.666569  0.333261  0.470938	T   T   T
 0.666354  0.833158  0.470992	T   T   T
 0.000030  0.000077  0.358488	T   T   T
 0.000074  0.499962  0.358456	T   T   T
 0.499965 -0.000057  0.358391	T   T   T
 0.499875  0.499965  0.358470	T   T   T
 0.334698  0.166373  0.583821	T   T   T
 0.334880  0.668022  0.584046	T   T   T
 0.827893  0.163078  0.583176	T   T   T
 0.832761  0.666476  0.583604	T   T   T
 0.000101 -0.000508  0.528386	T   T   T
 0.000214  0.500409  0.528717	T   T   T
 0.498496 -0.000893  0.528430	T   T   T
 0.500590  0.500316  0.528622	T   T   T
 0.333327  0.166635  0.415560	T   T   T
 0.333276  0.666654  0.415612	T   T   T
 0.833315  0.166686  0.415548	T   T   T
 0.833352  0.666629  0.415424	T   T   T
 0.160543  0.329520  0.638239	T   T   T
 0.165859  0.833050  0.641137	T   T   T
 0.667653  0.334405  0.640596	T   T   T
 0.666324  0.831336  0.641268	T   T   T
 0.228560  0.394635  0.731299	T   T   T
 0.377687  0.395214  0.729885	T   T   T
