C1 O25 Ce12
1
 7.707464  0.000000  0.000000
-3.853732  6.674860  0.000000
 0.000000  0.000000 28.319031
Ce O C O
12 24 1 1
Selective Dynamics
Direct
 0.166023  0.333475  0.386242	T   T   T
 0.165919  0.833333  0.386284	T   T   T
 0.666144  0.333605  0.386042	T   T   T
 0.666023  0.833371  0.386111	T   T   T
-0.002639 -0.001725  0.612465	T   T   T
-0.000436  0.499387  0.611700	T   T   T
 0.499709  0.000324  0.611752	T   T   T
 0.500544  0.500547  0.611903	T   T   T
 0.332415  0.166236  0.499190	T   T   T
 0.332857  0.666842  0.499121	T   T   T
 0.832586  0.166589  0.499112	T   T   T
 0.833200  0.666604  0.498849	T   T   T
 0.165931  0.333680  0.470377	T   T   T
 0.165867  0.832653  0.469983	T   T   T
 0.666791  0.333604  0.469774	T   T   T
 0.665849  0.833257  0.469862	T   T   T
-0.001553 -0.000458  0.357989	T   T   T
-0.000866  0.500273  0.357785	T   T   T
 0.499738  0.000157  0.357923	T   T   T
 0.500118  0.500960  0.357930	T   T   T
 0.331966  0.165669  0.583243	T   T   T
 0.334445  0.668513  0.582611	T   T   T
 0.830800  0.165647  0.582939	T   T   T
 0.833053  0.666100  0.582944	T   T   T
-0.001979 -0.000886  0.528008	T   T   T
-0.000798  0.499413  0.528113	T   T   T
 0.499798  0.000731  0.527684	T   T   T
 0.500562  0.500107  0.527761	T   T   T
 0.332102  0.166707  0.414868	T   T   T
 0.332252  0.666238  0.415140	T   T   T
 0.833484  0.166959  0.415178	T   T   T
 0.833063  0.667143  0.414877	T   T   T
 0.165039  0.334985  0.639678	T   T   T
 0.165810  0.831473  0.639978	T   T   T
 0.666307  0.333445  0.640409	T   T   T
 0.666816  0.833219  0.640471	T   T   T
 0.145940  0.090502  0.732819	T   T   T
 0.295999  0.193524  0.750676	T   T   T
