C1 O25 Ce12
1
 7.707464  0.000000  0.000000
-3.853732  6.674860  0.000000
 0.000000  0.000000 28.319031
Ce O C O
12 24 1 1
Selective Dynamics
Direct
 0.166641  0.333295  0.387902	T   T   T
 0.166845  0.833447  0.387811	T   T   T
 0.666565  0.333129  0.387846	T   T   T
 0.666603  0.833452  0.387831	T   T   T
-0.000816 -0.000848  0.611075	T   T   T
-0.001317  0.500891  0.611050	T   T   T
 0.499972  0.000680  0.612138	T   T   T
 0.501641  0.501585  0.610911	T   T   T
 0.333521  0.166234  0.500125	T   T   T
 0.333633  0.667451  0.500002	T   T   T
 0.832662  0.166295  0.500130	T   T   T
 0.833511  0.666780  0.499363	T   T   T
 0.166767  0.333318  0.470758	T   T   T
 0.166454  0.833302  0.470672	T   T   T
 0.666674  0.333568  0.470691	T   T   T
 0.666771  0.833167  0.470684	T   T   T
-0.000031 -0.000073  0.359378	T   T   T
-0.000023  0.500044  0.359377	T   T   T
 0.499982 -0.000016  0.359369	T   T   T
 0.500059  0.500035  0.359380	T   T   T
 0.334728  0.165610  0.583273	T   T   T
 0.336893  0.672206  0.582757	T   T   T
 0.828288  0.163706  0.582853	T   T   T
 0.832934  0.667054  0.582891	T   T   T
-0.000274 -0.000797  0.529162	T   T   T
-0.000307  0.500468  0.528943	T   T   T
 0.499763  0.000161  0.529029	T   T   T
 0.500832  0.500400  0.529044	T   T   T
 0.333348  0.166583  0.416447	T   T   T
 0.333354  0.666767  0.416423	T   T   T
 0.833251  0.166619  0.416434	T   T   T
 0.833371  0.666689  0.416413	T   T   T
 0.164335  0.336467  0.634675	T   T   T
 0.165770  0.833864  0.640344	T   T   T
 0.666061  0.334102  0.640660	T   T   T
 0.668669  0.833756  0.640129	T   T   T
 0.275905  0.437640  0.725867	T   T   T
 0.196978  0.270766  0.735954	T   T   T
