C1 O25 Ce12
1
 7.707464  0.000000  0.000000
-3.853732  6.674860  0.000000
 0.000000  0.000000 28.319031
Ce O C O
12 24 1 1
Selective Dynamics
Direct
 0.166706  0.333477  0.387018	T   T   T
 0.167091  0.833962  0.386880	T   T   T
 0.666618  0.333310  0.387003	T   T   T
 0.666845  0.834000  0.387050	T   T   T
 0.000949  0.001624  0.611641	T   T   T
 0.001000  0.502219  0.611591	T   T   T
 0.500556  0.001644  0.611625	T   T   T
 0.500898  0.501926  0.611190	T   T   T
 0.333851  0.168097  0.499137	T   T   T
 0.333591  0.667809  0.499293	T   T   T
 0.834343  0.168523  0.499284	T   T   T
 0.834225  0.667990  0.499334	T   T   T
 0.166841  0.334401  0.470386	T   T   T
 0.167087  0.834357  0.470289	T   T   T
 0.667486  0.334494  0.470434	T   T   T
 0.667468  0.834879  0.470434	T   T   T
-0.000043 -0.000018  0.358867	T   T   T
 0.000220  0.500434  0.358706	T   T   T
 0.499963 -0.000046  0.358859	T   T   T
 0.500176  0.500435  0.358829	T   T   T
 0.333580  0.167513  0.583063	T   T   T
 0.334331  0.668856  0.582939	T   T   T
 0.834019  0.168391  0.582636	T   T   T
 0.834615  0.668992  0.582917	T   T   T
 0.001236  0.001364  0.527784	T   T   T
 0.001223  0.502402  0.527969	T   T   T
 0.499938  0.001283  0.527776	T   T   T
 0.500578  0.501317  0.527871	T   T   T
 0.333614  0.167240  0.415410	T   T   T
 0.333398  0.667015  0.415569	T   T   T
 0.833644  0.167455  0.415404	T   T   T
 0.833551  0.666967  0.415549	T   T   T
 0.167150  0.335355  0.639691	T   T   T
 0.167298  0.834350  0.640132	T   T   T
 0.667653  0.335696  0.639570	T   T   T
 0.667931  0.835815  0.639163	T   T   T
-0.015140  0.422456  0.738983	T   T   T
 0.081055  0.593993  0.737512	T   T   T
