C1 O25 Ce12
1
 7.707464  0.000000  0.000000
-3.853732  6.674860  0.000000
 0.000000  0.000000 28.319031
Ce O C O
12 24 1 1
Selective Dynamics
Direct
 0.167645  0.333390  0.386647	T   T   T
 0.167395  0.833378  0.386465	T   T   T
 0.667549  0.333596  0.386453	T   T   T
 0.667568  0.833265  0.386453	T   T   T
 0.000987  0.000727  0.611734	T   T   T
 0.001066  0.502710  0.611179	T   T   T
 0.501178  0.001173  0.611438	T   T   T
 0.501952  0.501898  0.611271	T   T   T
 0.334356  0.167327  0.498890	T   T   T
 0.334407  0.667931  0.498823	T   T   T
 0.834288  0.167553  0.498870	T   T   T
 0.834377  0.667982  0.498747	T   T   T
 0.167708  0.334338  0.470518	T   T   T
 0.168331  0.834343  0.469994	T   T   T
 0.667400  0.333646  0.469943	T   T   T
 0.667176  0.834267  0.470026	T   T   T
 0.001073 -0.000563  0.358147	T   T   T
 0.000429  0.500188  0.358327	T   T   T
 0.500861  0.000211  0.358243	T   T   T
 0.501475  0.499685  0.358217	T   T   T
 0.335156  0.167487  0.582641	T   T   T
 0.334244  0.668426  0.582552	T   T   T
 0.834602  0.168435  0.582801	T   T   T
 0.834457  0.668360  0.583001	T   T   T
 0.000720  0.000052  0.527968	T   T   T
 0.000043  0.501978  0.527959	T   T   T
 0.501435  0.001398  0.527882	T   T   T
 0.502205  0.501355  0.527817	T   T   T
 0.333547  0.167095  0.415299	T   T   T
 0.334131  0.666156  0.415000	T   T   T
 0.835107  0.166799  0.415095	T   T   T
 0.834274  0.667403  0.415311	T   T   T
 0.169008  0.335448  0.639100	T   T   T
 0.167946  0.834660  0.639593	T   T   T
 0.668668  0.335137  0.639866	T   T   T
 0.666808  0.834996  0.639502	T   T   T
 0.007421  0.215678  0.735947	T   T   T
 0.038551  0.367625  0.750071	T   T   T
