C1 O25 Ce12
1
 7.707464  0.000000  0.000000
-3.853732  6.674860  0.000000
 0.000000  0.000000 28.319031
Ce O C O
12 24 1 1
Selective Dynamics
Direct
 0.166701  0.334690  0.386139	T   T   T
 0.166550  0.834843  0.385843	T   T   T
 0.666720  0.334936  0.385982	T   T   T
 0.666806  0.834790  0.385887	T   T   T
-0.001819 -0.001236  0.611506	T   T   T
-0.000535  0.500404  0.610939	T   T   T
 0.499255  0.000877  0.610778	T   T   T
 0.499759  0.500557  0.610775	T   T   T
 0.332060  0.167270  0.498460	T   T   T
 0.333097  0.667373  0.498496	T   T   T
 0.833267  0.167022  0.498517	T   T   T
 0.832926  0.667026  0.498270	T   T   T
 0.166458  0.332917  0.469612	T   T   T
 0.165841  0.834644  0.469554	T   T   T
 0.666077  0.334581  0.469243	T   T   T
 0.666854  0.833963  0.469493	T   T   T
 0.000041  0.001918  0.357523	T   T   T
 0.000030  0.501210  0.357455	T   T   T
 0.500309  0.001790  0.357884	T   T   T
 0.499925  0.501460  0.357573	T   T   T
 0.331145  0.165966  0.582426	T   T   T
 0.334383  0.669139  0.581936	T   T   T
 0.831734  0.164825  0.582469	T   T   T
 0.832846  0.667758  0.582239	T   T   T
-0.000124  0.000746  0.527517	T   T   T
-0.000174  0.499362  0.527525	T   T   T
 0.499483  0.002413  0.527076	T   T   T
 0.498785  0.499172  0.527623	T   T   T
 0.333273  0.168718  0.414925	T   T   T
 0.332283  0.666715  0.414488	T   T   T
 0.834318  0.169230  0.414699	T   T   T
 0.833222  0.667121  0.414839	T   T   T
 0.166405  0.335357  0.638857	T   T   T
 0.165540  0.832601  0.639475	T   T   T
 0.665802  0.334515  0.639431	T   T   T
 0.665539  0.831211  0.639084	T   T   T
 0.056659  0.032186  0.735703	T   T   T
 0.155214  0.113023  0.767548	T   T   T
