C1 O25 Ce12
1
 7.707464  0.000000  0.000000
-3.853732  6.674860  0.000000
 0.000000  0.000000 28.319031
Ce O C O
12 24 1 1
Selective Dynamics
Direct
 0.166668  0.333331  0.388132	T   T   T
 0.166743  0.833374  0.388127	T   T   T
 0.666623  0.333255  0.388113	T   T   T
 0.666627  0.833369  0.388088	T   T   T
 0.000013  0.000256  0.611679	T   T   T
 0.000440  0.500801  0.611003	T   T   T
 0.499572 -0.000449  0.611627	T   T   T
 0.498991  0.499858  0.611729	T   T   T
 0.333292  0.166708  0.500041	T   T   T
 0.333766  0.666814  0.499999	T   T   T
 0.833165  0.166299  0.500031	T   T   T
 0.833052  0.666863  0.499768	T   T   T
 0.166575  0.333386  0.471003	T   T   T
 0.166597  0.833210  0.470989	T   T   T
 0.666804  0.333393  0.470976	T   T   T
 0.666675  0.833349  0.470966	T   T   T
-0.000023 -0.000023  0.359838	T   T   T
-0.000016  0.500002  0.359840	T   T   T
 0.500010 -0.000001  0.359835	T   T   T
 0.500024  0.500016  0.359837	T   T   T
 0.332008  0.165220  0.583093	T   T   T
 0.333381  0.667447  0.583229	T   T   T
 0.832972  0.166588  0.583245	T   T   T
 0.833975  0.667589  0.583128	T   T   T
-0.000295 -0.000296  0.528840	T   T   T
-0.000138  0.500232  0.528841	T   T   T
 0.500056  0.000024  0.528936	T   T   T
 0.500268  0.500127  0.528947	T   T   T
 0.333357  0.166680  0.416548	T   T   T
 0.333380  0.666686  0.416564	T   T   T
 0.833297  0.166631  0.416559	T   T   T
 0.833293  0.666663  0.416542	T   T   T
 0.166502  0.333144  0.638944	T   T   T
 0.166133  0.832618  0.640098	T   T   T
 0.663145  0.333390  0.638184	T   T   T
 0.667374  0.834081  0.640204	T   T   T
 0.002055  0.331409  0.729381	T   T   T
 0.855471  0.334622  0.724887	T   T   T
