C1 O25 Ce12
1
 7.707464  0.000000  0.000000
-3.853732  6.674860  0.000000
 0.000000  0.000000 28.319031
Ce O C O
12 24 1 1
Selective Dynamics
Direct
 0.166589  0.333177  0.386461	T   T   T
 0.166368  0.833177  0.386130	T   T   T
 0.666723  0.333445  0.386072	T   T   T
 0.666810  0.833177  0.386130	T   T   T
-0.001020 -0.002040  0.612362	T   T   T
-0.001912  0.497613  0.612508	T   T   T
 0.498520 -0.002959  0.612300	T   T   T
 0.499525  0.497613  0.612508	T   T   T
 0.333127  0.165649  0.499251	T   T   T
 0.332707  0.665415  0.499281	T   T   T
 0.832520  0.165649  0.499251	T   T   T
 0.832990  0.665980  0.499286	T   T   T
 0.166081  0.332160  0.470024	T   T   T
 0.164757  0.832469  0.469735	T   T   T
 0.666792  0.333584  0.469931	T   T   T
 0.667713  0.832469  0.469735	T   T   T
 0.000223  0.000446  0.357977	T   T   T
 0.000154  0.499696  0.357901	T   T   T
 0.500015  0.000031  0.357667	T   T   T
 0.499542  0.499696  0.357901	T   T   T
 0.335195  0.163566  0.583592	T   T   T
 0.333468  0.666936  0.583909	T   T   T
 0.828371  0.163566  0.583592	T   T   T
 0.831989  0.663979  0.582711	T   T   T
 0.000218  0.000436  0.528678	T   T   T
 0.000093  0.498410  0.528607	T   T   T
 0.498532 -0.002936  0.527664	T   T   T
 0.498317  0.498410  0.528607	T   T   T
 0.333569  0.166638  0.415202	T   T   T
 0.333280  0.666561  0.415257	T   T   T
 0.833068  0.166638  0.415202	T   T   T
 0.833075  0.666151  0.414835	T   T   T
 0.164340  0.328679  0.639982	T   T   T
 0.162478  0.830171  0.640826	T   T   T
 0.667242  0.334483  0.641425	T   T   T
 0.667694  0.830171  0.640826	T   T   T
 0.216379  0.432758  0.776049	T   T   T
 0.248912  0.497824  0.738742	T   T   T
