C1 O25 Ce12
1
 7.707464  0.000000  0.000000
-3.853732  6.674860  0.000000
 0.000000  0.000000 28.319031
Ce O C O
12 24 1 1
Selective Dynamics
Direct
 0.166748  0.333330  0.386558	T   T   T
 0.166701  0.833387  0.386576	T   T   T
 0.666705  0.333436  0.386535	T   T   T
 0.666745  0.833315  0.386632	T   T   T
 0.001565  0.000524  0.612170	T   T   T
 0.001109  0.500926  0.612100	T   T   T
 0.501503  0.000860  0.611642	T   T   T
 0.500984  0.501097  0.612049	T   T   T
 0.333949  0.167165  0.499092	T   T   T
 0.333821  0.667037  0.499072	T   T   T
 0.834483  0.167145  0.499061	T   T   T
 0.833872  0.667012  0.499235	T   T   T
 0.167814  0.333873  0.469990	T   T   T
 0.167085  0.833536  0.470278	T   T   T
 0.666806  0.334423  0.469935	T   T   T
 0.666919  0.832650  0.470103	T   T   T
-0.000158 -0.000102  0.358385	T   T   T
 0.000030  0.500051  0.358344	T   T   T
 0.500062 -0.000108  0.358364	T   T   T
 0.500112  0.500205  0.358487	T   T   T
 0.334190  0.167157  0.583269	T   T   T
 0.334283  0.667917  0.583472	T   T   T
 0.834748  0.167337  0.583406	T   T   T
 0.835022  0.667640  0.583046	T   T   T
 0.001353  0.001558  0.528120	T   T   T
 0.000897  0.499373  0.528087	T   T   T
 0.501984  0.001226  0.527861	T   T   T
 0.499417  0.500143  0.528295	T   T   T
 0.333166  0.166182  0.415272	T   T   T
 0.333317  0.667036  0.415343	T   T   T
 0.833348  0.166575  0.415453	T   T   T
 0.834006  0.667166  0.415146	T   T   T
 0.167031  0.334037  0.641196	T   T   T
 0.168028  0.834509  0.640258	T   T   T
 0.667079  0.334121  0.639836	T   T   T
 0.668968  0.834292  0.640359	T   T   T
 0.020134  0.266555  0.738022	T   T   T
 0.981741  0.101881  0.736742	T   T   T
