C1 O25 Ce12
1
 7.707464  0.000000  0.000000
-3.853732  6.674860  0.000000
 0.000000  0.000000 28.319031
Ce O C O
12 24 1 1
Selective Dynamics
Direct
 0.166792  0.333356  0.387420	T   T   T
 0.166683  0.833385  0.387489	T   T   T
 0.666573  0.333373  0.387466	T   T   T
 0.666631  0.833238  0.387419	T   T   T
-0.000128 -0.000357  0.612310	T   T   T
 0.000040  0.498743  0.611996	T   T   T
 0.500832 -0.000762  0.611995	T   T   T
 0.500226  0.499521  0.612470	T   T   T
 0.333275  0.166670  0.499996	T   T   T
 0.333517  0.666447  0.499900	T   T   T
 0.833440  0.166659  0.499809	T   T   T
 0.833217  0.666636  0.499994	T   T   T
 0.166475  0.333123  0.471001	T   T   T
 0.166642  0.833410  0.471046	T   T   T
 0.666753  0.333212  0.470989	T   T   T
 0.666856  0.833519  0.471037	T   T   T
-0.000047  0.000020  0.359103	T   T   T
-0.000026  0.499952  0.359102	T   T   T
 0.500068  0.000022  0.359111	T   T   T
 0.500016  0.500029  0.359105	T   T   T
 0.333071  0.166698  0.583974	T   T   T
 0.336187  0.665288  0.583223	T   T   T
 0.833327  0.165606  0.583711	T   T   T
 0.831421  0.666402  0.583696	T   T   T
 0.000151  0.000167  0.528906	T   T   T
-0.000226  0.499784  0.528786	T   T   T
 0.500207  0.000429  0.528771	T   T   T
 0.500107  0.499032  0.528533	T   T   T
 0.333350  0.166747  0.416009	T   T   T
 0.333393  0.666625  0.415996	T   T   T
 0.833350  0.166645  0.416014	T   T   T
 0.833256  0.666661  0.416018	T   T   T
 0.166349  0.333222  0.640817	T   T   T
 0.167133  0.827405  0.638579	T   T   T
 0.666181  0.332523  0.640937	T   T   T
 0.667753  0.834174  0.641217	T   T   T
 0.167858 -0.002534  0.767087	T   T   T
 0.162632  0.014930  0.727087	T   T   T
