C1 O25 Ce12
1
 7.707464  0.000000  0.000000
-3.853732  6.674860  0.000000
 0.000000  0.000000 28.319031
Ce O C O
12 24 1 1
Selective Dynamics
Direct
 0.166661  0.333326  0.388248	T   T   T
 0.166668  0.833336  0.388248	T   T   T
 0.666670  0.333329  0.388249	T   T   T
 0.666675  0.833341  0.388249	T   T   T
-0.000030  0.000211  0.611616	T   T   T
-0.000292  0.499658  0.611664	T   T   T
 0.500008  0.000142  0.611650	T   T   T
 0.501688  0.500055  0.611162	T   T   T
 0.333237  0.166478  0.499983	T   T   T
 0.333232  0.666751  0.500037	T   T   T
 0.833330  0.166663  0.500032	T   T   T
 0.833548  0.666776  0.499944	T   T   T
 0.166713  0.333353  0.471019	T   T   T
 0.166652  0.833330  0.471018	T   T   T
 0.666654  0.333369  0.471025	T   T   T
 0.666657  0.833281  0.471023	T   T   T
 0.000004 -0.000001  0.360343	T   T   T
 0.000016  0.500011  0.360343	T   T   T
 0.499992 -0.000014  0.360342	T   T   T
 0.499997  0.500007  0.360342	T   T   T
 0.333787  0.166672  0.582880	T   T   T
 0.333475  0.666720  0.582990	T   T   T
 0.832664  0.166355  0.582850	T   T   T
 0.833238  0.666529  0.582918	T   T   T
-0.000002 -0.000077  0.528916	T   T   T
-0.000055  0.500048  0.528963	T   T   T
 0.499966  0.000009  0.528924	T   T   T
 0.500151  0.500009  0.528924	T   T   T
 0.333324  0.166658  0.417017	T   T   T
 0.333332  0.666668  0.417016	T   T   T
 0.833342  0.166664  0.417012	T   T   T
 0.833347  0.666679  0.417019	T   T   T
 0.163136  0.328964  0.637826	T   T   T
 0.166945  0.833471  0.639695	T   T   T
 0.666859  0.332574  0.639270	T   T   T
 0.666320  0.833492  0.639699	T   T   T
 0.444245  0.500874  0.724410	T   T   T
 0.298568  0.504288  0.726925	T   T   T
