C1 O25 Ce12
1
 7.707464  0.000000  0.000000
-3.853732  6.674860  0.000000
 0.000000  0.000000 28.319031
Ce O C O
12 24 1 1
Selective Dynamics
Direct
 0.166670  0.333336  0.388294	T   T   T
 0.166668  0.833333  0.388294	T   T   T
 0.666666  0.333336  0.388292	T   T   T
 0.666664  0.833330  0.388293	T   T   T
-0.000581 -0.001633  0.611201	T   T   T
-0.000546  0.500649  0.611518	T   T   T
 0.500051  0.000172  0.611877	T   T   T
 0.500773  0.500293  0.611637	T   T   T
 0.333439  0.166695  0.500009	T   T   T
 0.333382  0.666715  0.500027	T   T   T
 0.833246  0.166669  0.499998	T   T   T
 0.833271  0.666590  0.499967	T   T   T
 0.166646  0.333307  0.471249	T   T   T
 0.166630  0.833329  0.471250	T   T   T
 0.666689  0.333358  0.471247	T   T   T
 0.666707  0.833342  0.471248	T   T   T
-0.000001 -0.000000  0.360575	T   T   T
-0.000001  0.499999  0.360575	T   T   T
 0.500002  0.000000  0.360574	T   T   T
 0.500002  0.500002  0.360574	T   T   T
 0.333143  0.166485  0.582916	T   T   T
 0.333246  0.666730  0.582924	T   T   T
 0.833587  0.166710  0.582960	T   T   T
 0.833485  0.666787  0.582886	T   T   T
-0.000046 -0.000084  0.528766	T   T   T
-0.000059  0.500010  0.528759	T   T   T
 0.500030  0.000027  0.528746	T   T   T
 0.500079  0.500030  0.528740	T   T   T
 0.333334  0.166667  0.417069	T   T   T
 0.333336  0.666668  0.417067	T   T   T
 0.833333  0.166666  0.417069	T   T   T
 0.833333  0.666667  0.417072	T   T   T
 0.169435  0.336163  0.638418	T   T   T
 0.166187  0.832816  0.639272	T   T   T
 0.667061  0.333661  0.639242	T   T   T
 0.666540  0.832898  0.639235	T   T   T
 0.110738  0.167064  0.724487	T   T   T
 0.960914  0.164546  0.725463	T   T   T
