C1 O25 Ce12
1
 7.707464  0.000000  0.000000
-3.853732  6.674860  0.000000
 0.000000  0.000000 28.319031
Ce O C O
12 24 1 1
Selective Dynamics
Direct
 0.166611  0.333374  0.386942	T   T   T
 0.166593  0.833241  0.386869	T   T   T
 0.666723  0.333379  0.386873	T   T   T
 0.666638  0.833321  0.386851	T   T   T
-0.001386 -0.000232  0.612597	T   T   T
-0.000980  0.499888  0.612606	T   T   T
 0.499173  0.000078  0.612706	T   T   T
 0.499565  0.500449  0.612726	T   T   T
 0.333093  0.166843  0.499850	T   T   T
 0.333240  0.666830  0.499832	T   T   T
 0.832764  0.166417  0.499836	T   T   T
 0.833033  0.666667  0.499752	T   T   T
 0.166332  0.333527  0.470731	T   T   T
 0.165920  0.832756  0.470651	T   T   T
 0.666974  0.333822  0.470691	T   T   T
 0.666547  0.833260  0.470814	T   T   T
 0.000071  0.000143  0.358464	T   T   T
 0.000030  0.499903  0.358505	T   T   T
 0.500011  0.000041  0.358420	T   T   T
 0.499867  0.499899  0.358437	T   T   T
 0.333218  0.167399  0.584253	T   T   T
 0.335064  0.668535  0.583809	T   T   T
 0.830010  0.163847  0.583527	T   T   T
 0.831692  0.667284  0.583688	T   T   T
 0.000266  0.000237  0.528766	T   T   T
-0.000145  0.499940  0.528807	T   T   T
 0.498649  0.000202  0.528596	T   T   T
 0.499446  0.499767  0.528914	T   T   T
 0.333341  0.166762  0.415696	T   T   T
 0.333463  0.666679  0.415671	T   T   T
 0.833216  0.166540  0.415634	T   T   T
 0.833090  0.666674  0.415605	T   T   T
 0.162976  0.334252  0.640105	T   T   T
 0.165537  0.833380  0.641167	T   T   T
 0.667517  0.334235  0.640900	T   T   T
 0.666051  0.832359  0.641632	T   T   T
 0.329217  0.276990  0.768533	T   T   T
 0.353241  0.276868  0.728661	T   T   T
