C1 O25 Ce12
1
 7.707464  0.000000  0.000000
-3.853732  6.674860  0.000000
 0.000000  0.000000 28.319031
Ce O C O
12 24 1 1
Selective Dynamics
Direct
 0.165859  0.334269  0.386356	T   T   T
 0.165608  0.833917  0.386405	T   T   T
 0.666231  0.334511  0.386409	T   T   T
 0.666191  0.834142  0.386324	T   T   T
-0.001058 -0.000115  0.611554	T   T   T
-0.000954  0.499957  0.610811	T   T   T
 0.498905  0.000093  0.610648	T   T   T
 0.499294  0.500036  0.610743	T   T   T
 0.331987  0.166611  0.498643	T   T   T
 0.332545  0.666802  0.498590	T   T   T
 0.832398  0.166578  0.498693	T   T   T
 0.832640  0.666882  0.498739	T   T   T
 0.166415  0.333357  0.470134	T   T   T
 0.166362  0.834354  0.469850	T   T   T
 0.664646  0.333006  0.469780	T   T   T
 0.665471  0.833290  0.469673	T   T   T
-0.001528  0.000055  0.358066	T   T   T
-0.000680  0.500799  0.357869	T   T   T
 0.499377  0.000404  0.358475	T   T   T
 0.499813  0.501388  0.358152	T   T   T
 0.331160  0.166655  0.582112	T   T   T
 0.331269  0.665645  0.581993	T   T   T
 0.833270  0.167535  0.582528	T   T   T
 0.833500  0.666865  0.582734	T   T   T
-0.002381 -0.001269  0.527693	T   T   T
-0.001854  0.500204  0.527295	T   T   T
 0.499476  0.000444  0.527590	T   T   T
 0.500796  0.500937  0.527602	T   T   T
 0.332008  0.167056  0.414779	T   T   T
 0.331132  0.666335  0.414957	T   T   T
 0.833576  0.168472  0.415019	T   T   T
 0.833484  0.666700  0.415070	T   T   T
 0.166451  0.333647  0.639253	T   T   T
 0.168225  0.834013  0.639144	T   T   T
 0.664000  0.332231  0.639036	T   T   T
 0.664136  0.832343  0.638474	T   T   T
 0.108064  0.049383  0.734355	T   T   T
 0.231934  0.113559  0.762240	T   T   T
