C1 O25 Ce12
1
 7.707464  0.000000  0.000000
-3.853732  6.674860  0.000000
 0.000000  0.000000 28.319031
Ce O C O
12 24 1 1
Selective Dynamics
Direct
 0.166143  0.332585  0.386638	T   T   T
 0.166191  0.832424  0.386533	T   T   T
 0.666199  0.332490  0.386516	T   T   T
 0.666017  0.832547  0.386752	T   T   T
-0.000366 -0.002021  0.611106	T   T   T
-0.000686  0.498195  0.612564	T   T   T
 0.499276 -0.002014  0.610983	T   T   T
 0.499300  0.498117  0.611080	T   T   T
 0.332532  0.165301  0.498802	T   T   T
 0.331939  0.665342  0.499032	T   T   T
 0.832805  0.165914  0.499051	T   T   T
 0.832690  0.665395  0.499027	T   T   T
 0.165894  0.332369  0.470371	T   T   T
 0.167047  0.832867  0.469999	T   T   T
 0.665179  0.331182  0.469941	T   T   T
 0.665261  0.832844  0.469866	T   T   T
-0.000519 -0.001053  0.358357	T   T   T
-0.000684  0.499215  0.358263	T   T   T
 0.499597 -0.000772  0.358166	T   T   T
 0.499766  0.499168  0.358412	T   T   T
 0.332508  0.165005  0.582043	T   T   T
 0.330060  0.662917  0.582958	T   T   T
 0.834900  0.167316  0.582974	T   T   T
 0.833183  0.664230  0.583313	T   T   T
-0.002150 -0.002554  0.527630	T   T   T
-0.001511  0.498970  0.527927	T   T   T
 0.500042 -0.001947  0.528173	T   T   T
 0.500087  0.499954  0.527684	T   T   T
 0.332285  0.165876  0.415057	T   T   T
 0.332167  0.665115  0.415287	T   T   T
 0.833493  0.166240  0.415263	T   T   T
 0.832948  0.665879  0.415388	T   T   T
 0.168949  0.328908  0.639765	T   T   T
 0.167722  0.833708  0.639635	T   T   T
 0.663477  0.329440  0.639454	T   T   T
 0.664974  0.832475  0.639402	T   T   T
 0.060089  0.437218  0.725740	T   T   T
 0.111367  0.388934  0.758639	T   T   T
