C1 O25 Ce12
1
 7.707464  0.000000  0.000000
-3.853732  6.674860  0.000000
 0.000000  0.000000 28.319031
Ce O C O
12 24 1 1
Selective Dynamics
Direct
 0.166668  0.333333  0.388687	T   T   T
 0.166668  0.833335  0.388687	T   T   T
 0.666666  0.333332  0.388688	T   T   T
 0.666667  0.833334  0.388687	T   T   T
-0.000051 -0.000259  0.611096	T   T   T
-0.000074  0.500108  0.611280	T   T   T
 0.499995 -0.000006  0.611356	T   T   T
 0.500142  0.500104  0.611297	T   T   T
 0.333343  0.166671  0.500008	T   T   T
 0.333339  0.666670  0.500007	T   T   T
 0.833325  0.166667  0.500006	T   T   T
 0.833327  0.666661  0.500010	T   T   T
 0.166665  0.333332  0.471901	T   T   T
 0.166666  0.833332  0.471901	T   T   T
 0.666668  0.333333  0.471901	T   T   T
 0.666668  0.833334  0.471901	T   T   T
 0.000003  0.000002  0.360952	T   T   T
 0.000000  0.500000  0.360952	T   T   T
 0.499998  0.000001  0.360952	T   T   T
 0.499998  0.499997  0.360952	T   T   T
 0.333315  0.166673  0.583169	T   T   T
 0.333281  0.666628  0.583173	T   T   T
 0.833378  0.166708  0.583176	T   T   T
 0.833350  0.666656  0.583169	T   T   T
 0.000005  0.000002  0.528090	T   T   T
-0.000002  0.499993  0.528096	T   T   T
 0.500003  0.000004  0.528091	T   T   T
 0.499998  0.499996  0.528093	T   T   T
 0.333333  0.166667  0.416824	T   T   T
 0.333330  0.666666  0.416824	T   T   T
 0.833334  0.166670  0.416825	T   T   T
 0.833334  0.666665  0.416824	T   T   T
 0.166927  0.333697  0.638995	T   T   T
 0.166526  0.833027  0.638966	T   T   T
 0.666761  0.333421  0.639032	T   T   T
 0.666261  0.832888  0.638891	T   T   T
 0.056596  0.056002  0.724144	T   T   T
 0.906529  0.055466  0.724187	T   T   T
