C1 O25 Ce12
1
 7.707464  0.000000  0.000000
-3.853732  6.674860  0.000000
 0.000000  0.000000 28.319031
Ce O C O
12 24 1 1
Selective Dynamics
Direct
 0.166770  0.333463  0.387345	T   T   T
 0.167165  0.833509  0.387147	T   T   T
 0.666416  0.332921  0.387070	T   T   T
 0.666311  0.833452  0.387089	T   T   T
-0.002427 -0.002849  0.611692	T   T   T
-0.002522  0.498925  0.611768	T   T   T
 0.498483 -0.001344  0.612804	T   T   T
 0.499771  0.499222  0.612096	T   T   T
 0.333274  0.166470  0.500079	T   T   T
 0.333235  0.666535  0.500112	T   T   T
 0.832747  0.166279  0.499945	T   T   T
 0.833325  0.666746  0.499699	T   T   T
 0.166718  0.333369  0.470897	T   T   T
 0.166249  0.833106  0.470669	T   T   T
 0.666703  0.333576  0.470758	T   T   T
 0.666723  0.833074  0.470708	T   T   T
-0.000104 -0.000181  0.358642	T   T   T
-0.000158  0.500060  0.358658	T   T   T
 0.500049  0.000069  0.358630	T   T   T
 0.500226  0.500078  0.358653	T   T   T
 0.335866  0.164889  0.583575	T   T   T
 0.334168  0.668162  0.583903	T   T   T
 0.825831  0.163338  0.583097	T   T   T
 0.832216  0.665565  0.583583	T   T   T
-0.000103 -0.000383  0.528734	T   T   T
 0.000073  0.500384  0.528664	T   T   T
 0.498219 -0.001653  0.527947	T   T   T
 0.500129  0.500200  0.528679	T   T   T
 0.333541  0.166566  0.415579	T   T   T
 0.333509  0.666962  0.415567	T   T   T
 0.832991  0.166520  0.415571	T   T   T
 0.833270  0.666615  0.415504	T   T   T
 0.159421  0.326536  0.637195	T   T   T
 0.164832  0.831717  0.641204	T   T   T
 0.666982  0.335272  0.641633	T   T   T
 0.666723  0.831686  0.641315	T   T   T
 0.271749  0.439329  0.770665	T   T   T
 0.307182  0.470702  0.731238	T   T   T
