C1 O25 Ce12
1
 7.707464  0.000000  0.000000
-3.853732  6.674860  0.000000
 0.000000  0.000000 28.319031
Ce O C O
12 24 1 1
Selective Dynamics
Direct
 0.166655  0.333366  0.386741	T   T   T
 0.166599  0.833304  0.386731	T   T   T
 0.666693  0.333388  0.386733	T   T   T
 0.666669  0.833327  0.386774	T   T   T
-0.000856 -0.000410  0.612252	T   T   T
-0.001122  0.500128  0.612058	T   T   T
 0.499372 -0.000170  0.612278	T   T   T
 0.501174  0.500678  0.611881	T   T   T
 0.333198  0.166433  0.499500	T   T   T
 0.333394  0.666948  0.499525	T   T   T
 0.832686  0.166432  0.499531	T   T   T
 0.833374  0.666878  0.499406	T   T   T
 0.166433  0.333093  0.470525	T   T   T
 0.166273  0.833454  0.470377	T   T   T
 0.666642  0.333301  0.470532	T   T   T
 0.666868  0.833557  0.470477	T   T   T
-0.000068 -0.000091  0.358417	T   T   T
 0.000031  0.500092  0.358422	T   T   T
 0.499958 -0.000087  0.358328	T   T   T
 0.500049  0.500109  0.358419	T   T   T
 0.334621  0.166764  0.583558	T   T   T
 0.334153  0.667490  0.583670	T   T   T
 0.830234  0.166217  0.583319	T   T   T
 0.832560  0.665950  0.583175	T   T   T
 0.000164  0.000718  0.528594	T   T   T
 0.000690  0.500201  0.528345	T   T   T
 0.498879 -0.000723  0.528393	T   T   T
 0.499402  0.499851  0.528404	T   T   T
 0.333469  0.166604  0.415535	T   T   T
 0.333495  0.666944  0.415579	T   T   T
 0.833059  0.166530  0.415499	T   T   T
 0.833206  0.666651  0.415322	T   T   T
 0.163771  0.331132  0.639774	T   T   T
 0.165961  0.833035  0.640405	T   T   T
 0.666161  0.334397  0.640914	T   T   T
 0.667840  0.833890  0.640200	T   T   T
 0.282614  0.389436  0.736531	T   T   T
 0.366799  0.560051  0.731664	T   T   T
