C1 O25 Ce12
1
 7.707464  0.000000  0.000000
-3.853732  6.674860  0.000000
 0.000000  0.000000 28.319031
Ce O C O
12 24 1 1
Selective Dynamics
Direct
 0.166672  0.333336  0.388310	T   T   T
 0.166673  0.833336  0.388304	T   T   T
 0.666660  0.333329  0.388300	T   T   T
 0.666660  0.833331  0.388303	T   T   T
-0.000262 -0.001170  0.611335	T   T   T
-0.001102  0.500635  0.611458	T   T   T
 0.500040  0.000075  0.611737	T   T   T
 0.500605  0.500069  0.611680	T   T   T
 0.333457  0.166725  0.500054	T   T   T
 0.333412  0.666703  0.500118	T   T   T
 0.833232  0.166647  0.500050	T   T   T
 0.833219  0.666582  0.499844	T   T   T
 0.166622  0.333298  0.471167	T   T   T
 0.166566  0.833297  0.471173	T   T   T
 0.666729  0.333407  0.471169	T   T   T
 0.666747  0.833332  0.471169	T   T   T
-0.000007 -0.000008  0.360450	T   T   T
-0.000007  0.500001  0.360449	T   T   T
 0.500002  0.000001  0.360448	T   T   T
 0.500008  0.500004  0.360449	T   T   T
 0.333149  0.166339  0.582996	T   T   T
 0.333159  0.666681  0.583081	T   T   T
 0.833500  0.166799  0.583073	T   T   T
 0.833507  0.666787  0.582963	T   T   T
-0.000159 -0.000292  0.528817	T   T   T
-0.000243  0.500110  0.528847	T   T   T
 0.500058  0.000073  0.528832	T   T   T
 0.500316  0.500102  0.528818	T   T   T
 0.333344  0.166664  0.416949	T   T   T
 0.333340  0.666677  0.416948	T   T   T
 0.833318  0.166662  0.416952	T   T   T
 0.833328  0.666661  0.416961	T   T   T
 0.168159  0.332960  0.638262	T   T   T
 0.166251  0.833028  0.639431	T   T   T
 0.666089  0.333556  0.638979	T   T   T
 0.667147  0.833498  0.639458	T   T   T
 0.110588  0.333185  0.725964	T   T   T
 0.963280  0.334246  0.724493	T   T   T
