C1 O25 Ce12
1
 7.707464  0.000000  0.000000
-3.853732  6.674860  0.000000
 0.000000  0.000000 28.319031
Ce O C O
12 24 1 1
Selective Dynamics
Direct
 0.167551  0.334187  0.386318	T   T   T
 0.167493  0.834075  0.386384	T   T   T
 0.667584  0.334194  0.386429	T   T   T
 0.667499  0.834084  0.386356	T   T   T
 0.001152  0.000874  0.611434	T   T   T
 0.000884  0.500580  0.611513	T   T   T
 0.501198  0.000197  0.611354	T   T   T
 0.500938  0.500738  0.611560	T   T   T
 0.334307  0.167420  0.498947	T   T   T
 0.334042  0.667129  0.498910	T   T   T
 0.834327  0.167305  0.498915	T   T   T
 0.834152  0.667393  0.498977	T   T   T
 0.167683  0.334013  0.469908	T   T   T
 0.167537  0.834108  0.470023	T   T   T
 0.667358  0.334068  0.470092	T   T   T
 0.667539  0.833859  0.469917	T   T   T
 0.000703  0.000807  0.358080	T   T   T
 0.000776  0.500740  0.358019	T   T   T
 0.501085  0.000828  0.358134	T   T   T
 0.500978  0.500995  0.358068	T   T   T
 0.334930  0.167684  0.582760	T   T   T
 0.334134  0.667103  0.582929	T   T   T
 0.834364  0.167123  0.582696	T   T   T
 0.834012  0.667374  0.582745	T   T   T
 0.001312  0.000966  0.527764	T   T   T
 0.001086  0.500698  0.527897	T   T   T
 0.500784  0.000104  0.527864	T   T   T
 0.500509  0.500826  0.527984	T   T   T
 0.334376  0.167569  0.415042	T   T   T
 0.333985  0.667298  0.415076	T   T   T
 0.834245  0.167739  0.415037	T   T   T
 0.834193  0.667170  0.415082	T   T   T
 0.167734  0.333755  0.639777	T   T   T
 0.167419  0.834391  0.639857	T   T   T
 0.668464  0.334142  0.639605	T   T   T
 0.667540  0.833815  0.639673	T   T   T
 0.411957 -0.002483  0.741916	T   T   T
 0.417490  0.148224  0.744747	T   T   T
