C1 O25 Ce12
1
 7.707464  0.000000  0.000000
-3.853732  6.674860  0.000000
 0.000000  0.000000 28.319031
Ce O C O
12 24 1 1
Selective Dynamics
Direct
 0.166576  0.333351  0.387601	T   T   T
 0.166620  0.833246  0.387437	T   T   T
 0.666779  0.333359  0.387492	T   T   T
 0.666689  0.833375  0.387486	T   T   T
 0.000025  0.000831  0.612402	T   T   T
 0.002695  0.502329  0.611872	T   T   T
 0.500070  0.001327  0.612989	T   T   T
 0.501096  0.503141  0.611792	T   T   T
 0.333295  0.166224  0.500071	T   T   T
 0.333767  0.667406  0.499713	T   T   T
 0.832845  0.165973  0.500115	T   T   T
 0.833585  0.667438  0.499930	T   T   T
 0.166838  0.333535  0.471332	T   T   T
 0.166980  0.833406  0.471258	T   T   T
 0.666491  0.333149  0.471284	T   T   T
 0.666371  0.833317  0.471330	T   T   T
 0.000014 -0.000032  0.359197	T   T   T
 0.000005  0.500036  0.359189	T   T   T
 0.499964 -0.000011  0.359190	T   T   T
 0.500013  0.499997  0.359202	T   T   T
 0.334532  0.166196  0.584358	T   T   T
 0.335524  0.669474  0.583855	T   T   T
 0.832189  0.163900  0.583884	T   T   T
 0.834996  0.673026  0.582670	T   T   T
 0.001166  0.001364  0.528360	T   T   T
 0.000529  0.500050  0.528401	T   T   T
 0.499515 -0.000155  0.529104	T   T   T
 0.499165  0.499764  0.528442	T   T   T
 0.333356  0.166543  0.416020	T   T   T
 0.333353  0.666816  0.416086	T   T   T
 0.833215  0.166611  0.416066	T   T   T
 0.833402  0.666696  0.415988	T   T   T
 0.168128  0.333068  0.640962	T   T   T
 0.166297  0.833031  0.640587	T   T   T
 0.675087  0.343181  0.638714	T   T   T
 0.665041  0.834391  0.641347	T   T   T
 0.473518  0.125021  0.726843	T   T   T
 0.510270  0.182956  0.765547	T   T   T
