C1 O25 Ce12
1
 7.707464  0.000000  0.000000
-3.853732  6.674860  0.000000
 0.000000  0.000000 28.319031
Ce O C O
12 24 1 1
Selective Dynamics
Direct
 0.166298  0.332998  0.385807	T   T   T
 0.166584  0.833174  0.386193	T   T   T
 0.666796  0.333040  0.386321	T   T   T
 0.666876  0.833418  0.386297	T   T   T
-0.001468 -0.001788  0.611557	T   T   T
-0.002670  0.498350  0.612878	T   T   T
 0.498263 -0.000210  0.611028	T   T   T
 0.499245  0.498189  0.611604	T   T   T
 0.332578  0.166856  0.498851	T   T   T
 0.331794  0.664381  0.498937	T   T   T
 0.833968  0.167384  0.498954	T   T   T
 0.833092  0.664542  0.498904	T   T   T
 0.166449  0.333392  0.469967	T   T   T
 0.165675  0.831566  0.470576	T   T   T
 0.667264  0.333547  0.470504	T   T   T
 0.666072  0.831974  0.470561	T   T   T
-0.000119  0.000207  0.357931	T   T   T
 0.000281  0.499724  0.357801	T   T   T
 0.500146 -0.000249  0.357930	T   T   T
 0.499720  0.500082  0.357957	T   T   T
 0.330812  0.165080  0.582689	T   T   T
 0.331197  0.664742  0.582935	T   T   T
 0.833429  0.166499  0.583319	T   T   T
 0.833416  0.665609  0.582846	T   T   T
-0.000889  0.000590  0.527266	T   T   T
 0.000755  0.497515  0.527597	T   T   T
 0.499343 -0.000635  0.527875	T   T   T
 0.497737  0.498480  0.527341	T   T   T
 0.333395  0.166094  0.414919	T   T   T
 0.333305  0.666876  0.415157	T   T   T
 0.832868  0.166275  0.415215	T   T   T
 0.833529  0.666304  0.414605	T   T   T
 0.168250  0.331515  0.640640	T   T   T
 0.166423  0.831986  0.639982	T   T   T
 0.663230  0.330405  0.639482	T   T   T
 0.664968  0.831475  0.639750	T   T   T
 0.041038  0.413333  0.727213	T   T   T
 0.128518  0.395058  0.758397	T   T   T
