C1 O25 Ce12
1
 7.707464  0.000000  0.000000
-3.853732  6.674860  0.000000
 0.000000  0.000000 28.319031
Ce O C O
12 24 1 1
Selective Dynamics
Direct
 0.167828  0.334999  0.387598	T   T   T
 0.168150  0.835363  0.387724	T   T   T
 0.667757  0.334945  0.387901	T   T   T
 0.667801  0.835337  0.387716	T   T   T
 0.001742  0.002735  0.614361	T   T   T
 0.001663  0.503190  0.612690	T   T   T
 0.501655  0.002243  0.612691	T   T   T
 0.502288  0.503299  0.612677	T   T   T
 0.334191  0.168933  0.500440	T   T   T
 0.334583  0.668650  0.500224	T   T   T
 0.835355  0.169026  0.500445	T   T   T
 0.835235  0.669871  0.500452	T   T   T
 0.168614  0.336697  0.471064	T   T   T
 0.168265  0.835121  0.471486	T   T   T
 0.668268  0.336005  0.471368	T   T   T
 0.667385  0.835082  0.471460	T   T   T
 0.001567  0.002410  0.359237	T   T   T
 0.000792  0.501012  0.359410	T   T   T
 0.501416  0.002157  0.359488	T   T   T
 0.500866  0.500958  0.359419	T   T   T
 0.333119  0.168739  0.584602	T   T   T
 0.334798  0.668361  0.583636	T   T   T
 0.836320  0.168836  0.584584	T   T   T
 0.836036  0.671557  0.584456	T   T   T
 0.002023  0.003593  0.529286	T   T   T
 0.000661  0.502102  0.529338	T   T   T
 0.501715  0.002577  0.529573	T   T   T
 0.501931  0.501977  0.529342	T   T   T
 0.334535  0.167973  0.416602	T   T   T
 0.334831  0.669175  0.416224	T   T   T
 0.834076  0.168037  0.416590	T   T   T
 0.834887  0.669106  0.416506	T   T   T
 0.170750  0.340980  0.641778	T   T   T
 0.170205  0.834497  0.641157	T   T   T
 0.667904  0.335489  0.641164	T   T   T
 0.666087  0.835005  0.641264	T   T   T
 0.059010  0.086049  0.718969	T   T   T
 0.107914  0.161245  0.755193	T   T   T
