C1 O25 Ce12
1
 7.707464  0.000000  0.000000
-3.853732  6.674860  0.000000
 0.000000  0.000000 28.319031
Ce O C O
12 24 1 1
Selective Dynamics
Direct
 0.166511  0.333489  0.387530	T   T   T
 0.166511  0.833021  0.387530	T   T   T
 0.666979  0.333489  0.387530	T   T   T
 0.666667  0.833333  0.387657	T   T   T
-0.000016 -0.000008  0.612740	T   T   T
 0.000000  0.500000  0.614311	T   T   T
 0.500008 -0.000008  0.612740	T   T   T
 0.500008  0.500016  0.612740	T   T   T
 0.333333  0.166667  0.500306	T   T   T
 0.332670  0.666335  0.500412	T   T   T
 0.833665  0.167330  0.500412	T   T   T
 0.833665  0.666335  0.500412	T   T   T
 0.167252  0.332748  0.471388	T   T   T
 0.167252  0.834502  0.471388	T   T   T
 0.665498  0.332748  0.471388	T   T   T
 0.666667  0.833333  0.471131	T   T   T
-0.000549 -0.000275  0.359141	T   T   T
 0.000000  0.500000  0.358988	T   T   T
 0.500275 -0.000275  0.359141	T   T   T
 0.500275  0.500549  0.359141	T   T   T
 0.333333  0.166667  0.583980	T   T   T
 0.330407  0.665204  0.584800	T   T   T
 0.834796  0.169593  0.584800	T   T   T
 0.834796  0.665204  0.584800	T   T   T
-0.001395 -0.000697  0.529457	T   T   T
 0.000000  0.500000  0.528767	T   T   T
 0.500697 -0.000697  0.529457	T   T   T
 0.500697  0.501395  0.529457	T   T   T
 0.333333  0.166667  0.416008	T   T   T
 0.332423  0.666212  0.416258	T   T   T
 0.833788  0.167577  0.416258	T   T   T
 0.833788  0.666212  0.416258	T   T   T
 0.168791  0.331209  0.641869	T   T   T
 0.168791  0.837581  0.641869	T   T   T
 0.662419  0.331209  0.641869	T   T   T
 0.666667  0.833333  0.641439	T   T   T
 0.000000  0.500000  0.717201	T   T   T
 0.000000  0.500000  0.757541	T   T   T
