C1 O25 Ce12
1
 7.707464  0.000000  0.000000
-3.853732  6.674860  0.000000
 0.000000  0.000000 28.319031
Ce O C O
12 24 1 1
Selective Dynamics
Direct
 0.166392  0.332549  0.386229	T   T   T
 0.166403  0.832298  0.386247	T   T   T
 0.666154  0.332323  0.386172	T   T   T
 0.666005  0.832251  0.386244	T   T   T
-0.001510 -0.002140  0.611221	T   T   T
-0.001393  0.497611  0.611353	T   T   T
 0.498600 -0.002026  0.611170	T   T   T
 0.498518  0.497770  0.611386	T   T   T
 0.332634  0.165636  0.498835	T   T   T
 0.332470  0.664990  0.498903	T   T   T
 0.832712  0.165567  0.498845	T   T   T
 0.832329  0.665036  0.498856	T   T   T
 0.166428  0.332346  0.469944	T   T   T
 0.166048  0.832154  0.469950	T   T   T
 0.665701  0.332354  0.469940	T   T   T
 0.665823  0.831791  0.469820	T   T   T
-0.000471 -0.001145  0.357991	T   T   T
-0.000396  0.499227  0.357963	T   T   T
 0.499563 -0.001015  0.357966	T   T   T
 0.499745  0.499248  0.357946	T   T   T
 0.331694  0.164342  0.582637	T   T   T
 0.331734  0.664568  0.582370	T   T   T
 0.832335  0.164810  0.582897	T   T   T
 0.832345  0.664982  0.582362	T   T   T
-0.001296 -0.001151  0.527722	T   T   T
-0.001540  0.497618  0.527663	T   T   T
 0.499889 -0.000877  0.527964	T   T   T
 0.499161  0.498179  0.527769	T   T   T
 0.332968  0.165727  0.414926	T   T   T
 0.332834  0.665484  0.414950	T   T   T
 0.832816  0.165800  0.415031	T   T   T
 0.832756  0.665422  0.414847	T   T   T
 0.166639  0.332094  0.639630	T   T   T
 0.165333  0.831204  0.639312	T   T   T
 0.664910  0.331642  0.639829	T   T   T
 0.663836  0.830257  0.638946	T   T   T
 0.023730  0.028674  0.737616	T   T   T
 0.156271  0.024398  0.754342	T   T   T
