C1 O25 Ce12
1
 7.707464  0.000000  0.000000
-3.853732  6.674860  0.000000
 0.000000  0.000000 28.319031
Ce O C O
12 24 1 1
Selective Dynamics
Direct
 0.165651  0.332105  0.386832	T   T   T
 0.165598  0.832210  0.386950	T   T   T
 0.665514  0.332147  0.386927	T   T   T
 0.665664  0.832123  0.386877	T   T   T
 0.000771 -0.001236  0.612019	T   T   T
 0.001294  0.498806  0.611878	T   T   T
 0.501173 -0.001670  0.611864	T   T   T
 0.500651  0.498599  0.612773	T   T   T
 0.333291  0.165773  0.499576	T   T   T
 0.333275  0.665294  0.499469	T   T   T
 0.833315  0.165400  0.499413	T   T   T
 0.832894  0.665497  0.499566	T   T   T
 0.166118  0.332418  0.470507	T   T   T
 0.166409  0.831833  0.470475	T   T   T
 0.666601  0.332099  0.470546	T   T   T
 0.666211  0.832281  0.470605	T   T   T
-0.000927 -0.001280  0.358419	T   T   T
-0.001442  0.498751  0.358684	T   T   T
 0.498827 -0.000825  0.358573	T   T   T
 0.499007  0.498466  0.358463	T   T   T
 0.334251  0.166189  0.583699	T   T   T
 0.334057  0.664799  0.583526	T   T   T
 0.834328  0.165101  0.583081	T   T   T
 0.833282  0.665271  0.583611	T   T   T
 0.000500 -0.001373  0.528408	T   T   T
 0.000071  0.499124  0.528526	T   T   T
 0.499658 -0.001493  0.528495	T   T   T
 0.499884  0.498677  0.528560	T   T   T
 0.332121  0.165589  0.415625	T   T   T
 0.333081  0.665493  0.415470	T   T   T
 0.832647  0.164779  0.415579	T   T   T
 0.832292  0.666131  0.415660	T   T   T
 0.165951  0.331728  0.640400	T   T   T
 0.167862  0.832170  0.640488	T   T   T
 0.669509  0.331108  0.640366	T   T   T
 0.667612  0.832841  0.640518	T   T   T
 0.492104  0.347931  0.738692	T   T   T
 0.510892  0.252700  0.766996	T   T   T
