C1 O25 Ce12
1
 7.707464  0.000000  0.000000
-3.853732  6.674860  0.000000
 0.000000  0.000000 28.319031
Ce O C O
12 24 1 1
Selective Dynamics
Direct
 0.167450  0.333234  0.387637	T   T   T
 0.167468  0.833105  0.387599	T   T   T
 0.667557  0.333212  0.387613	T   T   T
 0.667464  0.833198  0.387833	T   T   T
 0.001670 -0.000229  0.612570	T   T   T
 0.001360  0.500180  0.614256	T   T   T
 0.501530  0.000332  0.612652	T   T   T
 0.501961  0.499922  0.612511	T   T   T
 0.334409  0.166691  0.500068	T   T   T
 0.333868  0.666598  0.500390	T   T   T
 0.834669  0.167418  0.500383	T   T   T
 0.834795  0.666475  0.500309	T   T   T
 0.167934  0.333386  0.471402	T   T   T
 0.168193  0.833861  0.471290	T   T   T
 0.667279  0.333043  0.471275	T   T   T
 0.667352  0.833552  0.471294	T   T   T
 0.000603 -0.000382  0.359379	T   T   T
 0.000787  0.499866  0.359210	T   T   T
 0.500882 -0.000261  0.359360	T   T   T
 0.500991  0.499984  0.359379	T   T   T
 0.334724  0.166242  0.583345	T   T   T
 0.332887  0.665672  0.584556	T   T   T
 0.836074  0.168616  0.584577	T   T   T
 0.835898  0.666355  0.584644	T   T   T
-0.000024 -0.000771  0.529100	T   T   T
 0.000996  0.500402  0.529399	T   T   T
 0.501802 -0.000123  0.529259	T   T   T
 0.502215  0.501140  0.529188	T   T   T
 0.334111  0.166614  0.416218	T   T   T
 0.333724  0.666226  0.416376	T   T   T
 0.834571  0.167038  0.416401	T   T   T
 0.834412  0.666454  0.416497	T   T   T
 0.171087  0.330714  0.641272	T   T   T
 0.170011  0.836397  0.641481	T   T   T
 0.665840  0.332459  0.641190	T   T   T
 0.667403  0.833696  0.641197	T   T   T
 0.058222  0.498900  0.720125	T   T   T
 0.120047  0.500783  0.756883	T   T   T
