C1 O25 Ce12
1
 7.707464  0.000000  0.000000
-3.853732  6.674860  0.000000
 0.000000  0.000000 28.319031
Ce O C O
12 24 1 1
Selective Dynamics
Direct
 0.167333  0.332758  0.387712	T   T   T
 0.167245  0.832717  0.387833	T   T   T
 0.667167  0.332713  0.387796	T   T   T
 0.667142  0.832622  0.387710	T   T   T
 0.000001 -0.001742  0.611971	T   T   T
-0.000394  0.497992  0.611988	T   T   T
 0.500043 -0.001833  0.611980	T   T   T
 0.499754  0.497978  0.613507	T   T   T
 0.333619  0.166048  0.500042	T   T   T
 0.333567  0.665278  0.500103	T   T   T
 0.833474  0.165580  0.499752	T   T   T
 0.832958  0.665438  0.499998	T   T   T
 0.166389  0.331866  0.470902	T   T   T
 0.166365  0.832559  0.470969	T   T   T
 0.666976  0.332451  0.471146	T   T   T
 0.667353  0.832652  0.470928	T   T   T
 0.000594 -0.000567  0.359604	T   T   T
 0.000703  0.499406  0.359674	T   T   T
 0.500697 -0.000622  0.359665	T   T   T
 0.500614  0.499447  0.359562	T   T   T
 0.334121  0.166139  0.583725	T   T   T
 0.333454  0.664536  0.583903	T   T   T
 0.832306  0.165721  0.583143	T   T   T
 0.831994  0.663606  0.583774	T   T   T
 0.000273 -0.001391  0.528898	T   T   T
 0.000876  0.499617  0.528750	T   T   T
 0.499159 -0.002113  0.528751	T   T   T
 0.499720  0.498827  0.529085	T   T   T
 0.334144  0.166301  0.416429	T   T   T
 0.333936  0.665925  0.416499	T   T   T
 0.833695  0.165975  0.416238	T   T   T
 0.833428  0.665700  0.416385	T   T   T
 0.163312  0.329889  0.640094	T   T   T
 0.165869  0.832166  0.640262	T   T   T
 0.666624  0.329446  0.640894	T   T   T
 0.666945  0.832690  0.640256	T   T   T
 0.499732  0.395026  0.726995	T   T   T
 0.498809  0.315862  0.761193	T   T   T
