C1 O25 Ce12
1
 7.707464  0.000000  0.000000
-3.853732  6.674860  0.000000
 0.000000  0.000000 28.319031
Ce O C O
12 24 1 1
Selective Dynamics
Direct
 0.166671  0.333325  0.388086	T   T   T
 0.166670  0.833345  0.388117	T   T   T
 0.666655  0.333328  0.388095	T   T   T
 0.666671  0.833331  0.388088	T   T   T
-0.002008 -0.002865  0.611107	T   T   T
-0.002563  0.500445  0.611067	T   T   T
 0.499260 -0.000004  0.611703	T   T   T
 0.499869  0.500159  0.612785	T   T   T
 0.333881  0.167425  0.500074	T   T   T
 0.333915  0.666471  0.499975	T   T   T
 0.832978  0.166452  0.499918	T   T   T
 0.832445  0.666268  0.500019	T   T   T
 0.166547  0.333320  0.470479	T   T   T
 0.166663  0.833285  0.470505	T   T   T
 0.666756  0.333292  0.470478	T   T   T
 0.666694  0.833431  0.470474	T   T   T
-0.000003  0.000002  0.359591	T   T   T
 0.000002  0.499997  0.359593	T   T   T
 0.500008 -0.000001  0.359593	T   T   T
 0.500003  0.500005  0.359592	T   T   T
 0.334931  0.167881  0.583456	T   T   T
 0.334358  0.666387  0.583551	T   T   T
 0.829126  0.164933  0.582551	T   T   T
 0.831489  0.665551  0.583349	T   T   T
-0.000031 -0.000017  0.529325	T   T   T
 0.000089  0.500079  0.529372	T   T   T
 0.499699 -0.000271  0.529404	T   T   T
 0.499960  0.500105  0.529814	T   T   T
 0.333335  0.166691  0.416685	T   T   T
 0.333349  0.666649  0.416688	T   T   T
 0.833348  0.166661  0.416683	T   T   T
 0.833312  0.666665  0.416687	T   T   T
 0.153144  0.324852  0.637122	T   T   T
 0.167525  0.833220  0.640758	T   T   T
 0.665910  0.333435  0.640704	T   T   T
 0.666107  0.833230  0.640534	T   T   T
 0.370529  0.465055  0.726750	T   T   T
 0.319371  0.436775  0.765344	T   T   T
