C1 O25 Ce12
1
 7.707464  0.000000  0.000000
-3.853732  6.674860  0.000000
 0.000000  0.000000 28.319031
Ce O C O
12 24 1 1
Selective Dynamics
Direct
 0.166621  0.333426  0.387617	T   T   T
 0.166894  0.833401  0.387558	T   T   T
 0.666620  0.333139  0.387600	T   T   T
 0.666513  0.833500  0.387510	T   T   T
-0.000021  0.001222  0.612121	T   T   T
-0.000398  0.501169  0.612098	T   T   T
 0.499982  0.000564  0.613477	T   T   T
 0.500090  0.501209  0.612241	T   T   T
 0.333594  0.167066  0.500142	T   T   T
 0.333391  0.667036  0.500081	T   T   T
 0.833290  0.167016  0.500058	T   T   T
 0.833179  0.667320  0.499839	T   T   T
 0.166443  0.334014  0.470797	T   T   T
 0.166075  0.832977  0.471060	T   T   T
 0.667275  0.334189  0.471110	T   T   T
 0.666920  0.833437  0.471099	T   T   T
-0.000101 -0.000043  0.359437	T   T   T
-0.000065  0.499989  0.359529	T   T   T
 0.500068  0.000021  0.359300	T   T   T
 0.500079  0.500083  0.359483	T   T   T
 0.333652  0.167439  0.584009	T   T   T
 0.333565  0.667372  0.583711	T   T   T
 0.833426  0.167610  0.583870	T   T   T
 0.832139  0.667998  0.583428	T   T   T
 0.001618  0.002288  0.528719	T   T   T
-0.000238  0.500447  0.529137	T   T   T
 0.500050  0.000720  0.528510	T   T   T
 0.498959  0.499376  0.528781	T   T   T
 0.333425  0.166634  0.416266	T   T   T
 0.333604  0.667037  0.416130	T   T   T
 0.833045  0.166468  0.416191	T   T   T
 0.833241  0.666831  0.416228	T   T   T
 0.166601  0.335169  0.640169	T   T   T
 0.161735  0.830704  0.640164	T   T   T
 0.667970  0.337332  0.640915	T   T   T
 0.666944  0.833765  0.640963	T   T   T
 0.450462  0.082115  0.725015	T   T   T
 0.442243  0.122183  0.763751	T   T   T
