C1 O25 Ce12
1
 7.707464  0.000000  0.000000
-3.853732  6.674860  0.000000
 0.000000  0.000000 28.319031
Ce O C O
12 24 1 1
Selective Dynamics
Direct
 0.166996  0.333386  0.387055	T   T   T
 0.167093  0.833385  0.387038	T   T   T
 0.667054  0.333346  0.387059	T   T   T
 0.667025  0.833409  0.387088	T   T   T
 0.001696 -0.000249  0.612123	T   T   T
 0.001241  0.500021  0.612490	T   T   T
 0.501501  0.000154  0.612231	T   T   T
 0.501612  0.500079  0.612097	T   T   T
 0.334337  0.166728  0.499620	T   T   T
 0.334311  0.666764  0.499680	T   T   T
 0.834514  0.166978  0.499684	T   T   T
 0.834452  0.666800  0.499633	T   T   T
 0.167945  0.333661  0.470605	T   T   T
 0.167495  0.833460  0.470759	T   T   T
 0.667348  0.333740  0.470659	T   T   T
 0.667346  0.832944  0.470621	T   T   T
 0.000253  0.000230  0.358799	T   T   T
 0.000307  0.499810  0.358756	T   T   T
 0.500452  0.000079  0.358758	T   T   T
 0.500204  0.500021  0.358857	T   T   T
 0.333734  0.164984  0.583274	T   T   T
 0.334201  0.667351  0.583569	T   T   T
 0.835269  0.167287  0.583844	T   T   T
 0.836164  0.667624  0.583322	T   T   T
 0.000770  0.000508  0.528535	T   T   T
 0.001103  0.499677  0.528680	T   T   T
 0.501948  0.000306  0.528609	T   T   T
 0.500971  0.500069  0.528749	T   T   T
 0.333760  0.166397  0.415793	T   T   T
 0.333642  0.666963  0.415811	T   T   T
 0.833688  0.166754  0.415859	T   T   T
 0.834168  0.666819  0.415750	T   T   T
 0.171337  0.334079  0.640450	T   T   T
 0.167853  0.832962  0.640974	T   T   T
 0.666234  0.334507  0.639863	T   T   T
 0.668476  0.833059  0.640459	T   T   T
-0.060528  0.272127  0.733587	T   T   T
 0.024029  0.279336  0.767377	T   T   T
