C1 O25 Ce12
1
 7.707464  0.000000  0.000000
-3.853732  6.674860  0.000000
 0.000000  0.000000 28.319031
Ce O C O
12 24 1 1
Selective Dynamics
Direct
 0.166831  0.333278  0.387048	T   T   T
 0.166779  0.833389  0.387102	T   T   T
 0.666665  0.333297  0.387208	T   T   T
 0.666757  0.833268  0.387009	T   T   T
 0.001123 -0.000057  0.614434	T   T   T
 0.002132  0.499928  0.612671	T   T   T
 0.501511 -0.000843  0.612723	T   T   T
 0.501577  0.499710  0.612652	T   T   T
 0.333147  0.165902  0.500061	T   T   T
 0.333997  0.666469  0.499743	T   T   T
 0.834147  0.166327  0.499967	T   T   T
 0.834357  0.667016  0.500014	T   T   T
 0.166968  0.333478  0.470972	T   T   T
 0.167077  0.832880  0.470992	T   T   T
 0.667443  0.333170  0.470849	T   T   T
 0.666815  0.833118  0.471014	T   T   T
 0.000058 -0.000042  0.358479	T   T   T
 0.000010  0.500019  0.358706	T   T   T
 0.500032  0.000025  0.358693	T   T   T
 0.500089  0.499975  0.358644	T   T   T
 0.332444  0.165104  0.584757	T   T   T
 0.336341  0.666839  0.583496	T   T   T
 0.835030  0.165180  0.584402	T   T   T
 0.835185  0.668103  0.584596	T   T   T
 0.000667 -0.000262  0.529149	T   T   T
 0.000127  0.499622  0.529166	T   T   T
 0.500985  0.000904  0.529051	T   T   T
 0.501398  0.498500  0.529001	T   T   T
 0.332992  0.166428  0.415920	T   T   T
 0.333574  0.666637  0.415764	T   T   T
 0.833693  0.166276  0.415821	T   T   T
 0.833627  0.667138  0.415897	T   T   T
 0.169667  0.337435  0.641261	T   T   T
 0.170088  0.830263  0.641745	T   T   T
 0.668031  0.332551  0.641217	T   T   T
 0.666764  0.832520  0.641782	T   T   T
 0.068415  0.009449  0.724849	T   T   T
 0.125683 -0.002992  0.761260	T   T   T
