C1 O25 Ce12
1
 7.707464  0.000000  0.000000
-3.853732  6.674860  0.000000
 0.000000  0.000000 28.319031
Ce O C O
12 24 1 1
Selective Dynamics
Direct
 0.166638  0.333229  0.387427	T   T   T
 0.166658  0.833315  0.387458	T   T   T
 0.666591  0.333229  0.387427	T   T   T
 0.666655  0.833308  0.387383	T   T   T
-0.000890 -0.000886  0.612157	T   T   T
-0.000413  0.499174  0.612210	T   T   T
 0.500004 -0.000886  0.612157	T   T   T
 0.499225  0.498450  0.612957	T   T   T
 0.333467  0.166936  0.499922	T   T   T
 0.333240  0.666217  0.499901	T   T   T
 0.833206  0.166413  0.499853	T   T   T
 0.832976  0.666217  0.499901	T   T   T
 0.166454  0.333481  0.471120	T   T   T
 0.166259  0.832518  0.471098	T   T   T
 0.667029  0.333481  0.471120	T   T   T
 0.666571  0.833142  0.471275	T   T   T
 0.000111  0.000039  0.359115	T   T   T
-0.000029  0.499942  0.359170	T   T   T
 0.499928  0.000039  0.359115	T   T   T
 0.499912  0.499825  0.359057	T   T   T
 0.333905  0.167811  0.584257	T   T   T
 0.335222  0.666741  0.583786	T   T   T
 0.831572  0.163145  0.583252	T   T   T
 0.831517  0.666741  0.583786	T   T   T
 0.000907 -0.000320  0.528505	T   T   T
-0.000060  0.499881  0.528610	T   T   T
 0.498773 -0.000320  0.528505	T   T   T
 0.499743  0.499487  0.528783	T   T   T
 0.333426  0.166852  0.416078	T   T   T
 0.333671  0.666540  0.415990	T   T   T
 0.833185  0.166372  0.415936	T   T   T
 0.832868  0.666540  0.415990	T   T   T
 0.162538  0.332932  0.640109	T   T   T
 0.166748  0.833494  0.640767	T   T   T
 0.670395  0.332932  0.640109	T   T   T
 0.665833  0.831665  0.641239	T   T   T
 0.399618  0.299236  0.726343	T   T   T
 0.384323  0.268645  0.766248	T   T   T
