C1 O25 Ce12
1
 7.707464  0.000000  0.000000
-3.853732  6.674860  0.000000
 0.000000  0.000000 28.319031
Ce O C O
12 24 1 1
Selective Dynamics
Direct
 0.166898  0.333369  0.387718	T   T   T
 0.166905  0.833235  0.387749	T   T   T
 0.666993  0.333342  0.387747	T   T   T
 0.666931  0.833309  0.387795	T   T   T
 0.001169  0.000364  0.612583	T   T   T
 0.000530  0.499979  0.613996	T   T   T
 0.500672  0.000132  0.612441	T   T   T
 0.500572  0.499910  0.612536	T   T   T
 0.333853  0.166699  0.500177	T   T   T
 0.333361  0.666272  0.500296	T   T   T
 0.834346  0.167187  0.500295	T   T   T
 0.834278  0.666394  0.500333	T   T   T
 0.167767  0.332762  0.471349	T   T   T
 0.167820  0.834339  0.471383	T   T   T
 0.666186  0.332722  0.471379	T   T   T
 0.667289  0.833348  0.471211	T   T   T
-0.000201 -0.000180  0.359527	T   T   T
 0.000355  0.499996  0.359383	T   T   T
 0.500409 -0.000316  0.359521	T   T   T
 0.500348  0.500445  0.359513	T   T   T
 0.332826  0.167152  0.583748	T   T   T
 0.331996  0.665265  0.584329	T   T   T
 0.835930  0.168855  0.584362	T   T   T
 0.835473  0.665958  0.584409	T   T   T
-0.000149 -0.000497  0.529249	T   T   T
 0.000641  0.499909  0.528762	T   T   T
 0.501064 -0.000226  0.529417	T   T   T
 0.501236  0.500875  0.529291	T   T   T
 0.333730  0.166651  0.416275	T   T   T
 0.332998  0.666300  0.416500	T   T   T
 0.834032  0.167380  0.416463	T   T   T
 0.834063  0.666226  0.416443	T   T   T
 0.168993  0.332678  0.641719	T   T   T
 0.169965  0.836941  0.641168	T   T   T
 0.663252  0.330910  0.640788	T   T   T
 0.667783  0.833441  0.640887	T   T   T
 0.028425  0.497685  0.718983	T   T   T
 0.062373  0.501188  0.758394	T   T   T
