C1 O25 Ce12
1
 7.707464  0.000000  0.000000
-3.853732  6.674860  0.000000
 0.000000  0.000000 28.319031
Ce O C O
12 24 1 1
Selective Dynamics
Direct
 0.169938  0.333742  0.388269	T   T   T
 0.169966  0.833649  0.388107	T   T   T
 0.669913  0.333667  0.388129	T   T   T
 0.669807  0.833642  0.388252	T   T   T
 0.003743 -0.000507  0.613006	T   T   T
 0.002560  0.499926  0.614154	T   T   T
 0.503068 -0.000670  0.612969	T   T   T
 0.503533  0.499334  0.612915	T   T   T
 0.336569  0.166645  0.500588	T   T   T
 0.336195  0.666441  0.500752	T   T   T
 0.836915  0.167169  0.500747	T   T   T
 0.836906  0.666934  0.500615	T   T   T
 0.170428  0.333325  0.471984	T   T   T
 0.170489  0.834292  0.471773	T   T   T
 0.669203  0.333051  0.471788	T   T   T
 0.669893  0.833437  0.471636	T   T   T
 0.002899  0.000270  0.359983	T   T   T
 0.003110  0.500361  0.359809	T   T   T
 0.503426  0.000169  0.359945	T   T   T
 0.503394  0.500651  0.359999	T   T   T
 0.336316  0.165808  0.583928	T   T   T
 0.334615  0.664904  0.584882	T   T   T
 0.837871  0.168048  0.584924	T   T   T
 0.837832  0.666321  0.584849	T   T   T
 0.002249 -0.000530  0.529628	T   T   T
 0.002750  0.500232  0.529295	T   T   T
 0.504014 -0.000621  0.529738	T   T   T
 0.504400  0.500949  0.529706	T   T   T
 0.336520  0.166983  0.416791	T   T   T
 0.335843  0.666498  0.416893	T   T   T
 0.837041  0.167678  0.416993	T   T   T
 0.836976  0.666715  0.416904	T   T   T
 0.172977  0.330389  0.641910	T   T   T
 0.172289  0.836619  0.641641	T   T   T
 0.666520  0.331229  0.641326	T   T   T
 0.669869  0.832574  0.641533	T   T   T
 0.071220  0.498954  0.713053	T   T   T
 0.142077  0.501726  0.748701	T   T   T
