C1 O25 Ce12
1
 7.707464  0.000000  0.000000
-3.853732  6.674860  0.000000
 0.000000  0.000000 28.319031
Ce O C O
12 24 1 1
Selective Dynamics
Direct
 0.166661  0.333339  0.387575	T   T   T
 0.166662  0.833332  0.387551	T   T   T
 0.666668  0.333338  0.387551	T   T   T
 0.666661  0.833339  0.387778	T   T   T
 0.000458 -0.001526  0.611936	T   T   T
 0.000691  0.499309  0.613684	T   T   T
 0.500361 -0.000361  0.612235	T   T   T
 0.501526  0.499542  0.611936	T   T   T
 0.333547  0.166453  0.499930	T   T   T
 0.332613  0.666428  0.500156	T   T   T
 0.833572  0.167387  0.500156	T   T   T
 0.833783  0.666217  0.499934	T   T   T
 0.166629  0.333371  0.471269	T   T   T
 0.166544  0.833186  0.471277	T   T   T
 0.666814  0.333456  0.471277	T   T   T
 0.666724  0.833276  0.471357	T   T   T
 0.000040  0.000032  0.359454	T   T   T
 0.000001  0.499999  0.359434	T   T   T
 0.499975  0.000025  0.359455	T   T   T
 0.499968  0.499960  0.359454	T   T   T
 0.335246  0.164754  0.582857	T   T   T
 0.331855  0.665988  0.584132	T   T   T
 0.834012  0.168145  0.584132	T   T   T
 0.834544  0.665456  0.583946	T   T   T
-0.000557 -0.000449  0.528515	T   T   T
 0.000008  0.499992  0.529102	T   T   T
 0.500577 -0.000577  0.528488	T   T   T
 0.500449  0.500557  0.528515	T   T   T
 0.333333  0.166667  0.416154	T   T   T
 0.333082  0.666548  0.416243	T   T   T
 0.833452  0.166918  0.416243	T   T   T
 0.833460  0.666540  0.416264	T   T   T
 0.170711  0.329289  0.639678	T   T   T
 0.166797  0.833078  0.640838	T   T   T
 0.666922  0.333203  0.640838	T   T   T
 0.666642  0.833358  0.640725	T   T   T
 0.038660  0.461340  0.724627	T   T   T
 0.062019  0.437981  0.763420	T   T   T
