C1 O25 Ce12
1
 7.707464  0.000000  0.000000
-3.853732  6.674860  0.000000
 0.000000  0.000000 28.319031
Ce O C O
12 24 1 1
Selective Dynamics
Direct
 0.166443  0.333182  0.387257	T   T   T
 0.166551  0.833311  0.387362	T   T   T
 0.666352  0.333062  0.387240	T   T   T
 0.666399  0.833314  0.387224	T   T   T
-0.002809 -0.001583  0.612409	T   T   T
-0.002609  0.498376  0.612402	T   T   T
 0.497660 -0.001384  0.612215	T   T   T
 0.498174  0.498768  0.614037	T   T   T
 0.332116  0.166865  0.499949	T   T   T
 0.332049  0.665275  0.499953	T   T   T
 0.832383  0.166200  0.499745	T   T   T
 0.831650  0.665792  0.499995	T   T   T
 0.165531  0.332847  0.470838	T   T   T
 0.165173  0.832511  0.470820	T   T   T
 0.665940  0.333086  0.470907	T   T   T
 0.665829  0.832853  0.470932	T   T   T
 0.000082  0.000010  0.358871	T   T   T
 0.000060  0.500052  0.358882	T   T   T
 0.499691 -0.000142  0.358810	T   T   T
 0.499719  0.499843  0.358664	T   T   T
 0.331790  0.167436  0.584396	T   T   T
 0.331950  0.664274  0.584356	T   T   T
 0.831259  0.164952  0.583575	T   T   T
 0.829513  0.664942  0.584001	T   T   T
-0.000677 -0.000634  0.528888	T   T   T
-0.000865  0.499715  0.528940	T   T   T
 0.497086 -0.001386  0.528941	T   T   T
 0.498005  0.498987  0.529001	T   T   T
 0.333348  0.166984  0.416029	T   T   T
 0.333407  0.666392  0.415999	T   T   T
 0.832764  0.166337  0.415783	T   T   T
 0.832264  0.666187  0.415804	T   T   T
 0.160969  0.330313  0.641909	T   T   T
 0.163616  0.831792  0.640805	T   T   T
 0.665994  0.330854  0.640799	T   T   T
 0.664934  0.833533  0.641128	T   T   T
 0.404573  0.429050  0.727800	T   T   T
 0.310351  0.375813  0.761447	T   T   T
