C1 O25 Ce12
1
 7.707464  0.000000  0.000000
-3.853732  6.674860  0.000000
 0.000000  0.000000 28.319031
Ce O C O
12 24 1 1
Selective Dynamics
Direct
 0.166779  0.333288  0.387556	T   T   T
 0.166764  0.833484  0.387398	T   T   T
 0.666493  0.333257  0.387360	T   T   T
 0.666629  0.833307  0.387340	T   T   T
-0.001871 -0.000536  0.612172	T   T   T
-0.001036  0.499535  0.612097	T   T   T
 0.498805  0.000613  0.613642	T   T   T
 0.499538  0.500573  0.612328	T   T   T
 0.333465  0.166426  0.500029	T   T   T
 0.333399  0.667058  0.500014	T   T   T
 0.832851  0.166579  0.499920	T   T   T
 0.833090  0.666600  0.499732	T   T   T
 0.166561  0.333324  0.471011	T   T   T
 0.166835  0.833454  0.471050	T   T   T
 0.666525  0.333117  0.471017	T   T   T
 0.666509  0.833460  0.471072	T   T   T
-0.000084  0.000001  0.359094	T   T   T
 0.000014  0.499957  0.359072	T   T   T
 0.500071 -0.000038  0.359031	T   T   T
 0.500012  0.500076  0.359085	T   T   T
 0.333291  0.165965  0.584375	T   T   T
 0.334400  0.667383  0.584039	T   T   T
 0.832002  0.165432  0.583995	T   T   T
 0.830393  0.667416  0.583120	T   T   T
 0.000609  0.001103  0.528865	T   T   T
 0.000097  0.499741  0.528972	T   T   T
 0.499741  0.000253  0.529167	T   T   T
 0.498401  0.498854  0.528799	T   T   T
 0.333421  0.166644  0.416090	T   T   T
 0.333485  0.666820  0.416109	T   T   T
 0.833151  0.166534  0.416094	T   T   T
 0.833250  0.666673  0.416036	T   T   T
 0.166688  0.332466  0.641019	T   T   T
 0.158700  0.827154  0.640027	T   T   T
 0.670504  0.338426  0.640361	T   T   T
 0.665916  0.834177  0.641562	T   T   T
 0.412928  0.057740  0.725070	T   T   T
 0.379449  0.054796  0.764396	T   T   T
