C1 O25 Ce12
1
 7.707464  0.000000  0.000000
-3.853732  6.674860  0.000000
 0.000000  0.000000 28.319031
Ce O C O
12 24 1 1
Selective Dynamics
Direct
 0.166681  0.333717  0.387427	T   T   T
 0.166814  0.833727  0.387473	T   T   T
 0.666810  0.333713  0.387455	T   T   T
 0.666744  0.833807  0.387527	T   T   T
-0.000048  0.001002  0.614080	T   T   T
-0.000106  0.501329  0.612785	T   T   T
 0.499808  0.001677  0.612421	T   T   T
 0.498958  0.501538  0.612840	T   T   T
 0.333077  0.168324  0.500077	T   T   T
 0.333470  0.667790  0.500114	T   T   T
 0.834460  0.167996  0.500100	T   T   T
 0.833924  0.668793  0.500221	T   T   T
 0.167508  0.335256  0.471137	T   T   T
 0.167305  0.834226  0.471296	T   T   T
 0.666952  0.334993  0.471066	T   T   T
 0.666378  0.834050  0.471274	T   T   T
 0.000058  0.000471  0.358729	T   T   T
-0.000261  0.499853  0.358943	T   T   T
 0.500330  0.000606  0.358926	T   T   T
 0.500032  0.500002  0.359001	T   T   T
 0.330460  0.167823  0.584471	T   T   T
 0.331661  0.666007  0.583942	T   T   T
 0.835594  0.167481  0.584526	T   T   T
 0.834969  0.671146  0.584439	T   T   T
 0.000679  0.001902  0.528688	T   T   T
-0.000974  0.500524  0.528920	T   T   T
 0.500880  0.002617  0.529185	T   T   T
 0.500482  0.501199  0.528997	T   T   T
 0.332621  0.166669  0.415982	T   T   T
 0.333432  0.667311  0.415761	T   T   T
 0.833816  0.166794  0.416098	T   T   T
 0.834079  0.668212  0.415873	T   T   T
 0.166142  0.335236  0.642470	T   T   T
 0.169297  0.834651  0.640997	T   T   T
 0.666820  0.336182  0.641044	T   T   T
 0.662955  0.834260  0.641088	T   T   T
-0.000472  0.056035  0.723604	T   T   T
-0.001337  0.125305  0.759140	T   T   T
