C1 O25 Ce12
1
 7.707464  0.000000  0.000000
-3.853732  6.674860  0.000000
 0.000000  0.000000 28.319031
Ce O C O
12 24 1 1
Selective Dynamics
Direct
 0.166648  0.333291  0.386814	T   T   T
 0.166394  0.833200  0.386445	T   T   T
 0.666648  0.333489  0.386259	T   T   T
 0.666674  0.833140  0.386307	T   T   T
-0.003478 -0.003300  0.611638	T   T   T
-0.004163  0.497767  0.611696	T   T   T
 0.496948 -0.002734  0.612206	T   T   T
 0.499269  0.498636  0.612429	T   T   T
 0.332895  0.165933  0.499157	T   T   T
 0.332686  0.665949  0.499188	T   T   T
 0.831542  0.165477  0.498945	T   T   T
 0.832650  0.666157  0.499064	T   T   T
 0.165776  0.332481  0.470107	T   T   T
 0.164360  0.832290  0.469566	T   T   T
 0.666874  0.333841  0.469788	T   T   T
 0.667356  0.832766  0.469671	T   T   T
 0.000116  0.000385  0.358302	T   T   T
 0.000039  0.499692  0.358275	T   T   T
 0.500067  0.000089  0.357955	T   T   T
 0.499637  0.499761  0.358195	T   T   T
 0.334630  0.163722  0.583612	T   T   T
 0.333386  0.668010  0.583844	T   T   T
 0.825295  0.162637  0.583086	T   T   T
 0.830720  0.664217  0.582523	T   T   T
-0.000266  0.000407  0.528855	T   T   T
-0.000223  0.498774  0.528760	T   T   T
 0.496837 -0.002857  0.527190	T   T   T
 0.497993  0.498737  0.528854	T   T   T
 0.333633  0.166737  0.415371	T   T   T
 0.333478  0.666749  0.415364	T   T   T
 0.832830  0.166496  0.415344	T   T   T
 0.832846  0.666257  0.414942	T   T   T
 0.158857  0.326370  0.638355	T   T   T
 0.160236  0.829369  0.640509	T   T   T
 0.667280  0.336318  0.641327	T   T   T
 0.668053  0.830543  0.640663	T   T   T
 0.297789  0.454572  0.743705	T   T   T
 0.192132  0.362410  0.773805	T   T   T
