C1 O25 Ce12
1
 7.707464  0.000000  0.000000
-3.853732  6.674860  0.000000
 0.000000  0.000000 28.319031
Ce O C O
12 24 1 1
Selective Dynamics
Direct
 0.166672  0.333343  0.388567	T   T   T
 0.166670  0.833329  0.388565	T   T   T
 0.666666  0.333333  0.388566	T   T   T
 0.666657  0.833328  0.388567	T   T   T
-0.000052  0.000078  0.611338	T   T   T
-0.000084  0.499808  0.611332	T   T   T
 0.500155  0.000072  0.611325	T   T   T
 0.499944  0.499608  0.612147	T   T   T
 0.333388  0.166776  0.500014	T   T   T
 0.333383  0.666606  0.500018	T   T   T
 0.833337  0.166675  0.499999	T   T   T
 0.833224  0.666607  0.500017	T   T   T
 0.166637  0.333324  0.471694	T   T   T
 0.166669  0.833329  0.471697	T   T   T
 0.666684  0.333319  0.471694	T   T   T
 0.666678  0.833363  0.471696	T   T   T
 0.000006  0.000004  0.360851	T   T   T
 0.000001  0.500000  0.360852	T   T   T
 0.499998  0.000002  0.360852	T   T   T
 0.499996  0.499996  0.360852	T   T   T
 0.333235  0.166486  0.583076	T   T   T
 0.333245  0.666784  0.583078	T   T   T
 0.833335  0.166617  0.583076	T   T   T
 0.833524  0.666787  0.583078	T   T   T
-0.000012  0.000008  0.528303	T   T   T
-0.000001  0.499987  0.528299	T   T   T
 0.500015  0.000000  0.528302	T   T   T
 0.499998  0.500012  0.528197	T   T   T
 0.333335  0.166668  0.416917	T   T   T
 0.333328  0.666664  0.416918	T   T   T
 0.833336  0.166674  0.416919	T   T   T
 0.833336  0.666662  0.416917	T   T   T
 0.165537  0.332846  0.639089	T   T   T
 0.166681  0.833389  0.639254	T   T   T
 0.667781  0.332470  0.638937	T   T   T
 0.667004  0.834017  0.639162	T   T   T
 0.499501  0.446181  0.723556	T   T   T
 0.500193  0.443737  0.764394	T   T   T
