C1 O25 Ce12
1
 7.707464  0.000000  0.000000
-3.853732  6.674860  0.000000
 0.000000  0.000000 28.319031
Ce O C O
12 24 1 1
Selective Dynamics
Direct
 0.169854  0.334014  0.387781	T   T   T
 0.169522  0.834233  0.387642	T   T   T
 0.669638  0.334224  0.387920	T   T   T
 0.669755  0.833821  0.387814	T   T   T
 0.001753 -0.000705  0.614572	T   T   T
 0.002573  0.498495  0.612855	T   T   T
 0.503621 -0.000472  0.612783	T   T   T
 0.502764  0.500001  0.612992	T   T   T
 0.335109  0.166280  0.500535	T   T   T
 0.335799  0.666775  0.500322	T   T   T
 0.836244  0.166316  0.500538	T   T   T
 0.836528  0.667394  0.500579	T   T   T
 0.169163  0.333813  0.471718	T   T   T
 0.169962  0.833501  0.471173	T   T   T
 0.669471  0.332849  0.471573	T   T   T
 0.668739  0.833838  0.471480	T   T   T
 0.003085  0.000469  0.359290	T   T   T
 0.003248  0.501298  0.359316	T   T   T
 0.502806  0.000706  0.359430	T   T   T
 0.503307  0.501296  0.359441	T   T   T
 0.333494  0.165760  0.584852	T   T   T
 0.336101  0.665012  0.583814	T   T   T
 0.837063  0.165814  0.584418	T   T   T
 0.837059  0.667902  0.585122	T   T   T
 0.002649 -0.001145  0.529248	T   T   T
 0.002017  0.500532  0.529543	T   T   T
 0.501762  0.000361  0.529557	T   T   T
 0.503755  0.499572  0.529388	T   T   T
 0.335820  0.167964  0.416554	T   T   T
 0.336463  0.666720  0.416296	T   T   T
 0.836976  0.166908  0.416334	T   T   T
 0.835859  0.667642  0.416589	T   T   T
 0.169546  0.335354  0.641881	T   T   T
 0.173872  0.829311  0.641469	T   T   T
 0.668747  0.332248  0.641284	T   T   T
 0.666868  0.832600  0.641564	T   T   T
 0.080390 -0.006235  0.717184	T   T   T
 0.151949  0.005536  0.753263	T   T   T
