C1 O25 Ce12
1
 7.707464  0.000000  0.000000
-3.853732  6.674860  0.000000
 0.000000  0.000000 28.319031
Ce O C O
12 24 1 1
Selective Dynamics
Direct
 0.164469  0.332539  0.387818	T   T   T
 0.164163  0.832375  0.387955	T   T   T
 0.664166  0.332574  0.387822	T   T   T
 0.664170  0.832192  0.387813	T   T   T
-0.002678 -0.000784  0.612774	T   T   T
-0.002584  0.499531  0.612725	T   T   T
 0.497510 -0.000661  0.612667	T   T   T
 0.498311  0.499549  0.614480	T   T   T
 0.331241  0.166755  0.500543	T   T   T
 0.331249  0.665469  0.500544	T   T   T
 0.830967  0.165971  0.500337	T   T   T
 0.830276  0.665642  0.500505	T   T   T
 0.164355  0.332712  0.471436	T   T   T
 0.164619  0.832661  0.471342	T   T   T
 0.664065  0.332135  0.471302	T   T   T
 0.663971  0.832740  0.471330	T   T   T
-0.002650 -0.001200  0.359526	T   T   T
-0.002665  0.499105  0.359533	T   T   T
 0.497527 -0.000953  0.359693	T   T   T
 0.497787  0.499152  0.359398	T   T   T
 0.331108  0.168379  0.584698	T   T   T
 0.331459  0.664316  0.584612	T   T   T
 0.831944  0.166262  0.583818	T   T   T
 0.829466  0.665600  0.584654	T   T   T
-0.001883 -0.001228  0.529259	T   T   T
-0.002053  0.500343  0.529323	T   T   T
 0.496453 -0.001132  0.529510	T   T   T
 0.497939  0.499412  0.529352	T   T   T
 0.330786  0.166345  0.416602	T   T   T
 0.330862  0.665125  0.416600	T   T   T
 0.831417  0.165994  0.416394	T   T   T
 0.830453  0.665607  0.416622	T   T   T
 0.160181  0.331321  0.642084	T   T   T
 0.164458  0.832913  0.641235	T   T   T
 0.665783  0.331083  0.641058	T   T   T
 0.665079  0.835266  0.641425	T   T   T
 0.417995  0.466455  0.718174	T   T   T
 0.336951  0.449319  0.753153	T   T   T
