C1 O25 Ce12
1
 7.707464  0.000000  0.000000
-3.853732  6.674860  0.000000
 0.000000  0.000000 28.319031
Ce O C O
12 24 1 1
Selective Dynamics
Direct
 0.166665  0.333895  0.387779	T   T   T
 0.166695  0.834068  0.387811	T   T   T
 0.666723  0.333979  0.388034	T   T   T
 0.666840  0.834081  0.387789	T   T   T
-0.000013  0.000639  0.614199	T   T   T
 0.000083  0.500861  0.612612	T   T   T
 0.499681  0.000187  0.612667	T   T   T
 0.500085  0.500759  0.612635	T   T   T
 0.332687  0.166941  0.500457	T   T   T
 0.333305  0.667201  0.500162	T   T   T
 0.833485  0.166983  0.500460	T   T   T
 0.833657  0.668029  0.500436	T   T   T
 0.166794  0.334499  0.471459	T   T   T
 0.167108  0.833779  0.471399	T   T   T
 0.666558  0.333548  0.471434	T   T   T
 0.666019  0.833900  0.471414	T   T   T
 0.000047  0.000608  0.359438	T   T   T
-0.000227  0.500566  0.359621	T   T   T
 0.500203  0.000944  0.359630	T   T   T
 0.500270  0.500552  0.359613	T   T   T
 0.331433  0.166981  0.584656	T   T   T
 0.333455  0.666721  0.583434	T   T   T
 0.834439  0.166625  0.584575	T   T   T
 0.833802  0.669042  0.584742	T   T   T
-0.000113  0.000472  0.529271	T   T   T
-0.001271  0.500438  0.529293	T   T   T
 0.500147  0.001423  0.529395	T   T   T
 0.500950  0.500089  0.529206	T   T   T
 0.332807  0.167109  0.416632	T   T   T
 0.333364  0.667270  0.416276	T   T   T
 0.833700  0.167072  0.416603	T   T   T
 0.833606  0.667842  0.416694	T   T   T
 0.168545  0.338475  0.641616	T   T   T
 0.168630  0.832229  0.641223	T   T   T
 0.666402  0.333199  0.641191	T   T   T
 0.662955  0.832606  0.641530	T   T   T
 0.001261  0.028028  0.716652	T   T   T
-0.000778  0.059473  0.756077	T   T   T
