C1 O25 Ce12
1
 7.707464  0.000000  0.000000
-3.853732  6.674860  0.000000
 0.000000  0.000000 28.319031
Ce O C O
12 24 1 1
Selective Dynamics
Direct
 0.166667  0.333333  0.388184	T   T   T
 0.166430  0.833214  0.387868	T   T   T
 0.666786  0.333570  0.387868	T   T   T
 0.666786  0.833214  0.387868	T   T   T
-0.000208 -0.000415  0.612588	T   T   T
-0.000208  0.500208  0.612588	T   T   T
 0.500000 -0.000000  0.614386	T   T   T
 0.500415  0.500208  0.612588	T   T   T
 0.333766  0.166234  0.500417	T   T   T
 0.333766  0.667534  0.500417	T   T   T
 0.832466  0.166234  0.500417	T   T   T
 0.833333  0.666667  0.500135	T   T   T
 0.166667  0.333333  0.471419	T   T   T
 0.165709  0.832854  0.471433	T   T   T
 0.667146  0.334291  0.471433	T   T   T
 0.667146  0.832854  0.471433	T   T   T
 0.000226  0.000452  0.359581	T   T   T
 0.000226  0.499774  0.359581	T   T   T
 0.500000 -0.000000  0.359467	T   T   T
 0.499548  0.499774  0.359581	T   T   T
 0.334437  0.165563  0.584691	T   T   T
 0.334437  0.668875  0.584691	T   T   T
 0.831125  0.165563  0.584691	T   T   T
 0.833333  0.666667  0.583375	T   T   T
 0.000587  0.001174  0.529283	T   T   T
 0.000587  0.499413  0.529283	T   T   T
 0.500000 -0.000000  0.529135	T   T   T
 0.498826  0.499413  0.529283	T   T   T
 0.333748  0.166252  0.416597	T   T   T
 0.333748  0.667497  0.416597	T   T   T
 0.832503  0.166252  0.416597	T   T   T
 0.833333  0.666667  0.416233	T   T   T
 0.166667  0.333333  0.641150	T   T   T
 0.162716  0.831357  0.641460	T   T   T
 0.668643  0.337284  0.641460	T   T   T
 0.668643  0.831357  0.641460	T   T   T
 0.500000 -0.000000  0.716253	T   T   T
 0.500000 -0.000000  0.756627	T   T   T
