C1 O25 Ce12
1
 7.707464  0.000000  0.000000
-3.853732  6.674860  0.000000
 0.000000  0.000000 28.319031
Ce O C O
12 24 1 1
Selective Dynamics
Direct
 0.166701  0.333352  0.388088	T   T   T
 0.166703  0.833357  0.388097	T   T   T
 0.666631  0.333316  0.388094	T   T   T
 0.666634  0.833323  0.388081	T   T   T
-0.000258 -0.000495  0.611916	T   T   T
 0.000018  0.502424  0.611058	T   T   T
 0.499966  0.000444  0.611875	T   T   T
 0.502939  0.501996  0.611117	T   T   T
 0.333159  0.166315  0.500080	T   T   T
 0.333630  0.667164  0.499994	T   T   T
 0.833167  0.166286  0.499943	T   T   T
 0.833444  0.667039  0.499873	T   T   T
 0.166544  0.333292  0.470690	T   T   T
 0.166549  0.833270  0.470686	T   T   T
 0.666800  0.333405  0.470684	T   T   T
 0.666785  0.833401  0.470672	T   T   T
-0.000012 -0.000004  0.359715	T   T   T
-0.000009  0.500000  0.359715	T   T   T
 0.500008  0.000003  0.359715	T   T   T
 0.500012  0.500012  0.359712	T   T   T
 0.332909  0.164061  0.583090	T   T   T
 0.335013  0.671806  0.582492	T   T   T
 0.833326  0.165931  0.583385	T   T   T
 0.834734  0.668224  0.583124	T   T   T
-0.000274 -0.000100  0.529451	T   T   T
-0.000296  0.499841  0.529155	T   T   T
 0.500534  0.000486  0.529084	T   T   T
 0.500164  0.500058  0.529010	T   T   T
 0.333341  0.166684  0.416664	T   T   T
 0.333354  0.666668  0.416658	T   T   T
 0.833326  0.166656  0.416667	T   T   T
 0.833313  0.666670  0.416671	T   T   T
 0.177374  0.344943  0.635528	T   T   T
 0.165965  0.833768  0.640598	T   T   T
 0.667493  0.332685  0.640528	T   T   T
 0.667513  0.834412  0.640373	T   T   T
 0.028001  0.189006  0.728708	T   T   T
 0.065911  0.234745  0.767127	T   T   T
