C1 O25 Ce12
1
 7.707464  0.000000  0.000000
-3.853732  6.674860  0.000000
 0.000000  0.000000 28.319031
Ce O C O
12 24 1 1
Selective Dynamics
Direct
 0.165963  0.334677  0.388123	T   T   T
 0.165994  0.834827  0.387983	T   T   T
 0.665828  0.334660  0.388046	T   T   T
 0.665880  0.834766  0.387942	T   T   T
-0.001096  0.002052  0.612749	T   T   T
-0.001067  0.502135  0.612787	T   T   T
 0.499235  0.000984  0.614377	T   T   T
 0.499193  0.502471  0.612782	T   T   T
 0.333113  0.167819  0.500528	T   T   T
 0.332550  0.668514  0.500494	T   T   T
 0.831991  0.168079  0.500522	T   T   T
 0.832562  0.668223  0.500302	T   T   T
 0.165899  0.334900  0.471342	T   T   T
 0.165445  0.834524  0.471563	T   T   T
 0.666083  0.335156  0.471651	T   T   T
 0.666184  0.834545  0.471559	T   T   T
-0.000728  0.001623  0.359704	T   T   T
-0.000672  0.501368  0.359742	T   T   T
 0.499241  0.001307  0.359523	T   T   T
 0.499070  0.501449  0.359727	T   T   T
 0.333903  0.167366  0.584843	T   T   T
 0.332930  0.669900  0.584713	T   T   T
 0.830726  0.167883  0.584797	T   T   T
 0.832164  0.669145  0.583812	T   T   T
 0.000295  0.003336  0.529430	T   T   T
-0.000676  0.501205  0.529465	T   T   T
 0.499266  0.001085  0.529262	T   T   T
 0.497938  0.500867  0.529443	T   T   T
 0.332946  0.167911  0.416594	T   T   T
 0.332669  0.668476  0.416594	T   T   T
 0.832121  0.168046  0.416631	T   T   T
 0.832578  0.667942  0.416576	T   T   T
 0.166155  0.335351  0.641238	T   T   T
 0.161177  0.833014  0.641502	T   T   T
 0.667819  0.340119  0.641818	T   T   T
 0.666808  0.834208  0.641539	T   T   T
 0.471159  0.056288  0.716001	T   T   T
 0.448241  0.106004  0.752413	T   T   T
