C1 O25 Ce12
1
 7.707464  0.000000  0.000000
-3.853732  6.674860  0.000000
 0.000000  0.000000 28.319031
Ce O C O
12 24 1 1
Selective Dynamics
Direct
 0.166714  0.333305  0.387400	T   T   T
 0.166711  0.833395  0.387397	T   T   T
 0.666639  0.333316  0.387433	T   T   T
 0.666701  0.833340  0.387348	T   T   T
 0.000442  0.000175  0.612382	T   T   T
 0.000440  0.500116  0.612219	T   T   T
 0.500550 -0.000014  0.612352	T   T   T
 0.500394  0.500220  0.612488	T   T   T
 0.333597  0.166811  0.499884	T   T   T
 0.333343  0.666646  0.499845	T   T   T
 0.833476  0.166636  0.499845	T   T   T
 0.833527  0.666713  0.499863	T   T   T
 0.166521  0.333638  0.470893	T   T   T
 0.166512  0.832768  0.470844	T   T   T
 0.667248  0.333584  0.470940	T   T   T
 0.666828  0.833410  0.471031	T   T   T
-0.000034 -0.000004  0.359119	T   T   T
-0.000030  0.499967  0.359185	T   T   T
 0.500083  0.000035  0.359137	T   T   T
 0.500066  0.500036  0.359112	T   T   T
 0.334036  0.167250  0.584151	T   T   T
 0.335402  0.667804  0.583563	T   T   T
 0.832667  0.164315  0.583498	T   T   T
 0.833092  0.668073  0.583648	T   T   T
 0.001597  0.000565  0.528768	T   T   T
 0.000008  0.499905  0.528996	T   T   T
 0.499597  0.000389  0.528799	T   T   T
 0.499931  0.499492  0.528866	T   T   T
 0.333396  0.166725  0.416104	T   T   T
 0.333550  0.666723  0.416036	T   T   T
 0.833296  0.166526  0.416077	T   T   T
 0.833242  0.666717  0.416070	T   T   T
 0.165021  0.334871  0.640214	T   T   T
 0.166596  0.832159  0.640514	T   T   T
 0.670527  0.334697  0.640352	T   T   T
 0.666570  0.832906  0.641270	T   T   T
 0.375437  0.217604  0.726185	T   T   T
 0.394083  0.223631  0.766286	T   T   T
