C1 O25 Ce12
1
 7.707464  0.000000  0.000000
-3.853732  6.674860  0.000000
 0.000000  0.000000 28.319031
Ce O C O
12 24 1 1
Selective Dynamics
Direct
 0.166236  0.332463  0.387129	T   T   T
 0.166141  0.832280  0.387279	T   T   T
 0.666228  0.332463  0.387129	T   T   T
 0.666112  0.832222  0.387119	T   T   T
-0.001581 -0.002767  0.612223	T   T   T
-0.001328  0.497345  0.612278	T   T   T
 0.498814 -0.002767  0.612223	T   T   T
 0.498981  0.497961  0.613622	T   T   T
 0.332828  0.165658  0.499886	T   T   T
 0.332697  0.664940  0.499878	T   T   T
 0.832445  0.164891  0.499694	T   T   T
 0.832242  0.664940  0.499878	T   T   T
 0.165825  0.331685  0.470858	T   T   T
 0.165998  0.831994  0.470636	T   T   T
 0.665860  0.331685  0.470858	T   T   T
 0.666140  0.832279  0.470801	T   T   T
-0.000671 -0.001045  0.358860	T   T   T
-0.000433  0.499134  0.358815	T   T   T
 0.499626 -0.001045  0.358860	T   T   T
 0.499727  0.499454  0.358767	T   T   T
 0.332793  0.165587  0.583961	T   T   T
 0.332033  0.663883  0.583994	T   T   T
 0.832108  0.164218  0.583383	T   T   T
 0.831849  0.663883  0.583994	T   T   T
-0.000525 -0.002041  0.528840	T   T   T
-0.000852  0.498295  0.528871	T   T   T
 0.498484 -0.002041  0.528840	T   T   T
 0.499361  0.498723  0.528819	T   T   T
 0.333001  0.166003  0.415790	T   T   T
 0.332723  0.665283  0.415848	T   T   T
 0.832946  0.165892  0.415928	T   T   T
 0.832559  0.665283  0.415848	T   T   T
 0.162310  0.329472  0.640908	T   T   T
 0.165575  0.831149  0.640722	T   T   T
 0.667163  0.329472  0.640908	T   T   T
 0.666192  0.832383  0.640826	T   T   T
 0.431517  0.363035  0.731445	T   T   T
 0.376652  0.253304  0.762399	T   T   T
