C1 O25 Ce12
1
 7.707464  0.000000  0.000000
-3.853732  6.674860  0.000000
 0.000000  0.000000 28.319031
Ce O C O
12 24 1 1
Selective Dynamics
Direct
 0.166329  0.332496  0.387693	T   T   T
 0.166243  0.832484  0.387826	T   T   T
 0.666168  0.332496  0.387693	T   T   T
 0.666167  0.832334  0.387666	T   T   T
-0.000912 -0.001559  0.612623	T   T   T
-0.000856  0.498288  0.612646	T   T   T
 0.499353 -0.001559  0.612623	T   T   T
 0.499522  0.499044  0.614194	T   T   T
 0.333023  0.166046  0.500373	T   T   T
 0.332953  0.665256  0.500341	T   T   T
 0.832759  0.165519  0.500076	T   T   T
 0.832303  0.665256  0.500341	T   T   T
 0.165835  0.331954  0.471454	T   T   T
 0.166273  0.832545  0.471272	T   T   T
 0.666120  0.331954  0.471454	T   T   T
 0.666326  0.832651  0.471350	T   T   T
-0.000624 -0.001002  0.359489	T   T   T
-0.000434  0.499131  0.359498	T   T   T
 0.499622 -0.001002  0.359489	T   T   T
 0.499640  0.499279  0.359245	T   T   T
 0.333447  0.166895  0.584570	T   T   T
 0.332787  0.664366  0.584609	T   T   T
 0.832653  0.165306  0.583569	T   T   T
 0.831577  0.664366  0.584609	T   T   T
-0.000188 -0.001957  0.529204	T   T   T
-0.000108  0.499784  0.529164	T   T   T
 0.498231 -0.001957  0.529204	T   T   T
 0.499585  0.499171  0.529238	T   T   T
 0.333119  0.166239  0.416369	T   T   T
 0.332850  0.665441  0.416448	T   T   T
 0.832951  0.165904  0.416302	T   T   T
 0.832591  0.665441  0.416448	T   T   T
 0.162083  0.329684  0.641511	T   T   T
 0.166070  0.832139  0.641108	T   T   T
 0.667603  0.329684  0.641511	T   T   T
 0.667320  0.834639  0.641183	T   T   T
 0.469743  0.439488  0.718857	T   T   T
 0.440767  0.381535  0.756867	T   T   T
