C1 O25 Ce12
1
 7.707464  0.000000  0.000000
-3.853732  6.674860  0.000000
 0.000000  0.000000 28.319031
Ce O C O
12 24 1 1
Selective Dynamics
Direct
 0.168729  0.335087  0.387716	T   T   T
 0.168950  0.835217  0.387771	T   T   T
 0.668902  0.335081  0.387970	T   T   T
 0.668829  0.835189  0.387760	T   T   T
 0.002739  0.002989  0.614388	T   T   T
 0.002857  0.503448  0.612692	T   T   T
 0.502706  0.002571  0.612530	T   T   T
 0.503445  0.503633  0.612609	T   T   T
 0.335161  0.168893  0.500584	T   T   T
 0.335585  0.669001  0.500332	T   T   T
 0.836083  0.168865  0.500563	T   T   T
 0.836267  0.670419  0.500456	T   T   T
 0.169405  0.336794  0.471457	T   T   T
 0.169400  0.835258  0.471547	T   T   T
 0.669046  0.335536  0.471553	T   T   T
 0.668346  0.835277  0.471516	T   T   T
 0.002482  0.002396  0.359468	T   T   T
 0.001830  0.501415  0.359600	T   T   T
 0.502364  0.002033  0.359128	T   T   T
 0.502051  0.501408  0.359656	T   T   T
 0.334049  0.168870  0.584668	T   T   T
 0.335461  0.668743  0.583554	T   T   T
 0.837958  0.169753  0.584675	T   T   T
 0.836930  0.672018  0.584787	T   T   T
 0.002665  0.003155  0.529327	T   T   T
 0.000967  0.502728  0.529143	T   T   T
 0.503035  0.002772  0.529469	T   T   T
 0.503405  0.502402  0.529242	T   T   T
 0.334842  0.167637  0.416757	T   T   T
 0.335909  0.669217  0.416195	T   T   T
 0.835349  0.167594  0.416634	T   T   T
 0.836090  0.669726  0.416599	T   T   T
 0.172412  0.342130  0.641317	T   T   T
 0.172024  0.835392  0.641505	T   T   T
 0.668595  0.335545  0.641284	T   T   T
 0.667145  0.835883  0.641337	T   T   T
 0.082566  0.081812  0.718832	T   T   T
 0.158757  0.157445  0.753494	T   T   T
