C1 O25 Ce12
1
 7.707464  0.000000  0.000000
-3.853732  6.674860  0.000000
 0.000000  0.000000 28.319031
Ce O C O
12 24 1 1
Selective Dynamics
Direct
 0.166618  0.333390  0.387382	T   T   T
 0.166457  0.833189  0.387408	T   T   T
 0.666574  0.333418  0.387385	T   T   T
 0.666483  0.833163  0.387373	T   T   T
-0.001478 -0.000770  0.612228	T   T   T
-0.000939  0.499118  0.612202	T   T   T
 0.499017 -0.000556  0.612105	T   T   T
 0.499095  0.499226  0.612932	T   T   T
 0.332727  0.166842  0.499948	T   T   T
 0.332788  0.666444  0.499933	T   T   T
 0.832558  0.166200  0.499880	T   T   T
 0.832554  0.666541  0.499944	T   T   T
 0.165867  0.333414  0.470871	T   T   T
 0.165690  0.832539  0.470794	T   T   T
 0.666695  0.333512  0.470903	T   T   T
 0.666188  0.833325  0.471017	T   T   T
 0.000129  0.000122  0.359156	T   T   T
 0.000000  0.499959  0.359232	T   T   T
 0.499822  0.000017  0.359119	T   T   T
 0.499753  0.499790  0.359080	T   T   T
 0.332772  0.167405  0.583929	T   T   T
 0.333295  0.666158  0.583752	T   T   T
 0.832119  0.164253  0.583326	T   T   T
 0.831518  0.667195  0.583449	T   T   T
 0.000482  0.000322  0.528515	T   T   T
-0.000572  0.499616  0.528810	T   T   T
 0.498165 -0.000135  0.528636	T   T   T
 0.498692  0.499341  0.528660	T   T   T
 0.333255  0.166800  0.416144	T   T   T
 0.333529  0.666657  0.416018	T   T   T
 0.832973  0.166321  0.415980	T   T   T
 0.832727  0.666636  0.415933	T   T   T
 0.163175  0.332304  0.640822	T   T   T
 0.165022  0.832687  0.640488	T   T   T
 0.670110  0.333586  0.639664	T   T   T
 0.665035  0.832544  0.641026	T   T   T
 0.371484  0.294559  0.727895	T   T   T
 0.316285  0.270423  0.766176	T   T   T
