C1 O25 Ce12
1
 7.707464  0.000000  0.000000
-3.853732  6.674860  0.000000
 0.000000  0.000000 28.319031
Ce O C O
12 24 1 1
Selective Dynamics
Direct
 0.166673  0.333336  0.388236	T   T   T
 0.166664  0.833331  0.388239	T   T   T
 0.666667  0.333341  0.388238	T   T   T
 0.666667  0.833325  0.388238	T   T   T
-0.000401 -0.000122  0.611446	T   T   T
-0.000401  0.499721  0.611446	T   T   T
 0.500111  0.000055  0.611560	T   T   T
 0.499131  0.499565  0.612977	T   T   T
 0.333476  0.166955  0.500020	T   T   T
 0.333476  0.666522  0.500020	T   T   T
 0.833325  0.166663  0.499982	T   T   T
 0.833037  0.666519  0.500038	T   T   T
 0.166593  0.333296  0.471106	T   T   T
 0.166671  0.833335  0.471116	T   T   T
 0.666701  0.333291  0.471108	T   T   T
 0.666701  0.833409  0.471108	T   T   T
 0.000001  0.000006  0.360482	T   T   T
 0.000001  0.499995  0.360482	T   T   T
 0.500003  0.000001  0.360481	T   T   T
 0.499996  0.499998  0.360482	T   T   T
 0.333387  0.166630  0.582940	T   T   T
 0.333387  0.666758  0.582940	T   T   T
 0.832842  0.166422  0.582821	T   T   T
 0.833402  0.666702  0.582927	T   T   T
-0.000014  0.000013  0.528884	T   T   T
-0.000014  0.499973  0.528884	T   T   T
 0.500012  0.000006  0.528896	T   T   T
 0.500004  0.500002  0.528811	T   T   T
 0.333334  0.166676  0.417106	T   T   T
 0.333334  0.666659  0.417106	T   T   T
 0.833339  0.166670  0.417109	T   T   T
 0.833328  0.666664  0.417106	T   T   T
 0.160050  0.330025  0.638432	T   T   T
 0.166872  0.833435  0.639747	T   T   T
 0.667188  0.332774  0.639553	T   T   T
 0.667188  0.834413  0.639553	T   T   T
 0.400725  0.450362  0.724162	T   T   T
 0.384322  0.442160  0.764333	T   T   T
