C1 O25 Ce12
1
 7.707464  0.000000  0.000000
-3.853732  6.674860  0.000000
 0.000000  0.000000 28.319031
Ce O C O
12 24 1 1
Selective Dynamics
Direct
 0.166651  0.333305  0.388182	T   T   T
 0.166666  0.833353  0.388184	T   T   T
 0.666659  0.333319  0.388196	T   T   T
 0.666685  0.833355  0.388185	T   T   T
-0.000463 -0.001150  0.611380	T   T   T
-0.000165  0.500358  0.611770	T   T   T
 0.500302  0.000328  0.611760	T   T   T
 0.501204  0.500043  0.611367	T   T   T
 0.333341  0.166538  0.500030	T   T   T
 0.333235  0.666713  0.499900	T   T   T
 0.833301  0.166720  0.500074	T   T   T
 0.833471  0.666689  0.500025	T   T   T
 0.166744  0.333445  0.470746	T   T   T
 0.166691  0.833274  0.470742	T   T   T
 0.666661  0.333366  0.470747	T   T   T
 0.666567  0.833246  0.470746	T   T   T
-0.000000 -0.000002  0.360028	T   T   T
 0.000009  0.500007  0.360030	T   T   T
 0.499993 -0.000010  0.360029	T   T   T
 0.499996  0.500006  0.360030	T   T   T
 0.335299  0.166517  0.582773	T   T   T
 0.332918  0.666227  0.583193	T   T   T
 0.831852  0.166955  0.582928	T   T   T
 0.833039  0.665683  0.583028	T   T   T
 0.000015 -0.000009  0.529061	T   T   T
 0.000221  0.500180  0.529328	T   T   T
 0.499853 -0.000306  0.529178	T   T   T
 0.499952  0.500149  0.529246	T   T   T
 0.333317  0.166660  0.416898	T   T   T
 0.333330  0.666665  0.416906	T   T   T
 0.833344  0.166662  0.416898	T   T   T
 0.833342  0.666681  0.416899	T   T   T
 0.163462  0.322573  0.636905	T   T   T
 0.167012  0.833237  0.640016	T   T   T
 0.667067  0.333761  0.640222	T   T   T
 0.665557  0.832683  0.640162	T   T   T
 0.226689  0.520374  0.726122	T   T   T
 0.220629  0.492404  0.766203	T   T   T
