C1 O25 Ce12
1
 7.707464  0.000000  0.000000
-3.853732  6.674860  0.000000
 0.000000  0.000000 28.319031
Ce O C O
12 24 1 1
Selective Dynamics
Direct
 0.166658  0.332381  0.386989	T   T   T
 0.166601  0.832272  0.386980	T   T   T
 0.666726  0.332375  0.387003	T   T   T
 0.666708  0.832307  0.387008	T   T   T
 0.000677 -0.000246  0.612085	T   T   T
 0.000643  0.500030  0.612534	T   T   T
 0.500466 -0.000431  0.612104	T   T   T
 0.500998  0.499499  0.612029	T   T   T
 0.333554  0.166029  0.499491	T   T   T
 0.333159  0.665405  0.499548	T   T   T
 0.833796  0.166091  0.499553	T   T   T
 0.833525  0.665650  0.499540	T   T   T
 0.166616  0.332175  0.470722	T   T   T
 0.166601  0.832398  0.470717	T   T   T
 0.666807  0.332336  0.470754	T   T   T
 0.667076  0.832491  0.470693	T   T   T
-0.000073 -0.001140  0.358756	T   T   T
 0.000010  0.499152  0.358732	T   T   T
 0.499921 -0.001131  0.358870	T   T   T
 0.500116  0.499149  0.358745	T   T   T
 0.335215  0.167527  0.583319	T   T   T
 0.333177  0.665388  0.583744	T   T   T
 0.833738  0.166821  0.583607	T   T   T
 0.832976  0.665017  0.583344	T   T   T
 0.000396 -0.000552  0.528608	T   T   T
 0.000423  0.499169  0.528590	T   T   T
 0.500164 -0.001324  0.528563	T   T   T
 0.500039  0.499524  0.528390	T   T   T
 0.333443  0.165915  0.415771	T   T   T
 0.333133  0.665401  0.415767	T   T   T
 0.833549  0.166029  0.415763	T   T   T
 0.833290  0.665330  0.415691	T   T   T
 0.166941  0.330798  0.640691	T   T   T
 0.166533  0.834833  0.639659	T   T   T
 0.667404  0.332570  0.640700	T   T   T
 0.667047  0.832291  0.640459	T   T   T
 0.207333  0.554630  0.735594	T   T   T
 0.229061  0.473841  0.767004	T   T   T
