C1 O25 Ce12
1
 7.707464  0.000000  0.000000
-3.853732  6.674860  0.000000
 0.000000  0.000000 28.319031
Ce O C O
12 24 1 1
Selective Dynamics
Direct
 0.167669  0.334826  0.387451	T   T   T
 0.167502  0.834747  0.387341	T   T   T
 0.667791  0.334999  0.387590	T   T   T
 0.667848  0.834756  0.387323	T   T   T
 0.001423  0.000579  0.613780	T   T   T
 0.002567  0.501444  0.612311	T   T   T
 0.501908  0.002095  0.612091	T   T   T
 0.502229  0.502063  0.612319	T   T   T
 0.334060  0.168184  0.500067	T   T   T
 0.334853  0.668306  0.499866	T   T   T
 0.835212  0.168027  0.500048	T   T   T
 0.835006  0.668548  0.499959	T   T   T
 0.168115  0.334789  0.471269	T   T   T
 0.168057  0.834914  0.471015	T   T   T
 0.667939  0.334889  0.470879	T   T   T
 0.667974  0.834964  0.471103	T   T   T
 0.000738  0.001230  0.358972	T   T   T
 0.000712  0.501660  0.359122	T   T   T
 0.501081  0.001807  0.359064	T   T   T
 0.501359  0.501799  0.359123	T   T   T
 0.333657  0.168127  0.584053	T   T   T
 0.334970  0.668119  0.583529	T   T   T
 0.836551  0.168501  0.584163	T   T   T
 0.835590  0.668634  0.584052	T   T   T
 0.001294  0.001263  0.528892	T   T   T
 0.001263  0.501068  0.528803	T   T   T
 0.501974  0.002548  0.528832	T   T   T
 0.501626  0.501219  0.528797	T   T   T
 0.334079  0.168495  0.416129	T   T   T
 0.334064  0.667443  0.416155	T   T   T
 0.835179  0.168628  0.416128	T   T   T
 0.834459  0.668091  0.416069	T   T   T
 0.170748  0.339084  0.641174	T   T   T
 0.170045  0.833832  0.640835	T   T   T
 0.668918  0.335858  0.640811	T   T   T
 0.666765  0.834211  0.640798	T   T   T
 0.095226  0.093415  0.727755	T   T   T
 0.182883  0.180171  0.760450	T   T   T
