C1 O25 Ce12
1
 7.707464  0.000000  0.000000
-3.853732  6.674860  0.000000
 0.000000  0.000000 28.319031
Ce O C O
12 24 1 1
Selective Dynamics
Direct
 0.166535  0.333284  0.386253	T   T   T
 0.166110  0.833201  0.386375	T   T   T
 0.666889  0.333862  0.386505	T   T   T
 0.666934  0.833259  0.386369	T   T   T
-0.001128 -0.000299  0.612145	T   T   T
-0.000375  0.501235  0.612113	T   T   T
 0.499721  0.001374  0.611640	T   T   T
 0.500620  0.501366  0.611978	T   T   T
 0.332930  0.167203  0.499050	T   T   T
 0.333330  0.667680  0.499044	T   T   T
 0.832947  0.167167  0.499087	T   T   T
 0.833003  0.667175  0.499259	T   T   T
 0.166542  0.334414  0.469761	T   T   T
 0.165758  0.832661  0.469956	T   T   T
 0.667412  0.335016  0.469744	T   T   T
 0.666062  0.833137  0.470013	T   T   T
 0.000154  0.000202  0.358107	T   T   T
-0.000016  0.499945  0.358173	T   T   T
 0.499940  0.000130  0.357968	T   T   T
 0.499833  0.499832  0.358137	T   T   T
 0.332809  0.166256  0.583141	T   T   T
 0.332797  0.668296  0.583247	T   T   T
 0.833318  0.167679  0.583533	T   T   T
 0.833426  0.668205  0.582782	T   T   T
 0.000046  0.002093  0.528159	T   T   T
 0.000275  0.499605  0.528165	T   T   T
 0.500273  0.001906  0.527813	T   T   T
 0.498114  0.499696  0.528081	T   T   T
 0.333172  0.166455  0.415343	T   T   T
 0.333563  0.667171  0.415077	T   T   T
 0.832963  0.166298  0.415217	T   T   T
 0.833304  0.667262  0.414951	T   T   T
 0.169104  0.333427  0.641148	T   T   T
 0.165000  0.833536  0.640351	T   T   T
 0.667013  0.335455  0.639721	T   T   T
 0.666013  0.833990  0.640229	T   T   T
 0.064701  0.165774  0.735281	T   T   T
 0.200192  0.148386  0.743872	T   T   T
