C1 O25 Ce12
1
 7.707464  0.000000  0.000000
-3.853732  6.674860  0.000000
 0.000000  0.000000 28.319031
Ce O C O
12 24 1 1
Selective Dynamics
Direct
 0.166210  0.334257  0.387296	T   T   T
 0.166301  0.834383  0.387206	T   T   T
 0.666204  0.334219  0.387131	T   T   T
 0.666313  0.834404  0.387203	T   T   T
-0.001568  0.000971  0.612161	T   T   T
-0.000872  0.501487  0.612246	T   T   T
 0.498900  0.001528  0.613274	T   T   T
 0.498949  0.501427  0.612113	T   T   T
 0.332848  0.167598  0.499827	T   T   T
 0.333056  0.668342  0.499846	T   T   T
 0.832374  0.167815  0.499833	T   T   T
 0.832718  0.667685  0.499699	T   T   T
 0.166071  0.334417  0.470957	T   T   T
 0.165878  0.834381  0.470964	T   T   T
 0.666275  0.334769  0.470785	T   T   T
 0.666190  0.834317  0.470893	T   T   T
-0.000480  0.001056  0.358832	T   T   T
-0.000481  0.500861  0.358911	T   T   T
 0.499558  0.001191  0.358798	T   T   T
 0.499371  0.500709  0.358909	T   T   T
 0.332817  0.167354  0.583803	T   T   T
 0.332963  0.668970  0.583866	T   T   T
 0.831509  0.168641  0.583945	T   T   T
 0.832448  0.667101  0.583358	T   T   T
-0.001148  0.001349  0.528764	T   T   T
-0.000092  0.501132  0.528631	T   T   T
 0.499675  0.001756  0.528734	T   T   T
 0.498996  0.500794  0.528640	T   T   T
 0.332676  0.167258  0.415981	T   T   T
 0.333155  0.668173  0.415884	T   T   T
 0.832509  0.167227  0.415862	T   T   T
 0.832954  0.667947  0.415712	T   T   T
 0.165544  0.334137  0.640595	T   T   T
 0.163503  0.833704  0.640700	T   T   T
 0.666352  0.337381  0.640858	T   T   T
 0.666433  0.834232  0.640507	T   T   T
 0.471469  0.101667  0.733305	T   T   T
 0.443311  0.188695  0.762086	T   T   T
