C1 O25 Ce12
1
 7.707464  0.000000  0.000000
-3.853732  6.674860  0.000000
 0.000000  0.000000 28.319031
Ce O C O
12 24 1 1
Selective Dynamics
Direct
 0.166584  0.333668  0.387071	T   T   T
 0.166627  0.833755  0.387083	T   T   T
 0.666608  0.333682  0.387114	T   T   T
 0.666633  0.833773  0.387077	T   T   T
-0.000057  0.001130  0.612449	T   T   T
-0.000213  0.501605  0.612049	T   T   T
 0.499965  0.001240  0.612243	T   T   T
 0.500400  0.502014  0.612067	T   T   T
 0.333109  0.167440  0.499704	T   T   T
 0.333390  0.667714  0.499641	T   T   T
 0.833128  0.167411  0.499707	T   T   T
 0.833209  0.667673  0.499650	T   T   T
 0.166392  0.334198  0.470638	T   T   T
 0.166431  0.833849  0.470694	T   T   T
 0.666858  0.334211  0.470672	T   T   T
 0.666567  0.834110  0.470776	T   T   T
 0.000172  0.000543  0.358722	T   T   T
-0.000037  0.500281  0.358808	T   T   T
 0.499903  0.000446  0.358722	T   T   T
 0.499784  0.500115  0.358757	T   T   T
 0.332687  0.168000  0.583869	T   T   T
 0.335097  0.668737  0.583267	T   T   T
 0.832677  0.166750  0.583566	T   T   T
 0.832405  0.668514  0.583432	T   T   T
 0.000391  0.001318  0.528647	T   T   T
-0.000164  0.500980  0.528655	T   T   T
 0.499717  0.001575  0.528585	T   T   T
 0.499630  0.500226  0.528482	T   T   T
 0.333258  0.166997  0.415780	T   T   T
 0.333571  0.667422  0.415695	T   T   T
 0.833030  0.166772  0.415720	T   T   T
 0.833191  0.667362  0.415695	T   T   T
 0.165945  0.337233  0.640415	T   T   T
 0.165825  0.832036  0.639907	T   T   T
 0.666619  0.335004  0.640515	T   T   T
 0.667075  0.834899  0.640965	T   T   T
 0.227004  0.166345  0.733842	T   T   T
 0.221032  0.245415  0.767436	T   T   T
