C1 O25 Ce12
1
 7.707464  0.000000  0.000000
-3.853732  6.674860  0.000000
 0.000000  0.000000 28.319031
Ce O C O
12 24 1 1
Selective Dynamics
Direct
 0.164423  0.332422  0.387113	T   T   T
 0.163928  0.831995  0.387202	T   T   T
 0.664832  0.332814  0.387143	T   T   T
 0.664669  0.832212  0.387189	T   T   T
-0.002700 -0.002561  0.611990	T   T   T
-0.002289  0.498323  0.612032	T   T   T
 0.498447 -0.001772  0.612135	T   T   T
 0.498829  0.498597  0.613157	T   T   T
 0.331656  0.165810  0.499950	T   T   T
 0.331774  0.665401  0.499961	T   T   T
 0.830894  0.165081  0.499840	T   T   T
 0.830604  0.665146  0.499820	T   T   T
 0.164553  0.332140  0.470948	T   T   T
 0.164767  0.832338  0.470880	T   T   T
 0.664365  0.331987  0.470861	T   T   T
 0.664439  0.832249  0.470817	T   T   T
-0.002157 -0.001354  0.358839	T   T   T
-0.002207  0.499481  0.358825	T   T   T
 0.497811 -0.000852  0.359094	T   T   T
 0.498425  0.499347  0.358845	T   T   T
 0.331637  0.166096  0.583872	T   T   T
 0.331712  0.664334  0.583872	T   T   T
 0.831630  0.164943  0.583385	T   T   T
 0.830725  0.664721  0.583864	T   T   T
-0.001990 -0.001711  0.528652	T   T   T
-0.001987  0.498954  0.528694	T   T   T
 0.497821 -0.001529  0.528753	T   T   T
 0.498298  0.498838  0.528822	T   T   T
 0.331205  0.166241  0.415844	T   T   T
 0.331296  0.665197  0.415885	T   T   T
 0.831560  0.165803  0.415913	T   T   T
 0.830612  0.665546  0.415868	T   T   T
 0.161472  0.330551  0.640530	T   T   T
 0.164697  0.831917  0.640846	T   T   T
 0.665242  0.330719  0.640561	T   T   T
 0.664847  0.832645  0.640614	T   T   T
 0.375307  0.398253  0.733498	T   T   T
 0.256408  0.316345  0.762003	T   T   T
