C1 O25 Ce12
1
 7.707464  0.000000  0.000000
-3.853732  6.674860  0.000000
 0.000000  0.000000 28.319031
Ce O C O
12 24 1 1
Selective Dynamics
Direct
 0.166561  0.333364  0.387416	T   T   T
 0.166607  0.833224  0.387381	T   T   T
 0.666801  0.333367  0.387490	T   T   T
 0.666694  0.833381  0.387430	T   T   T
 0.000701  0.000644  0.612735	T   T   T
-0.000502  0.501226  0.612154	T   T   T
 0.500630  0.000275  0.612488	T   T   T
 0.501373  0.502303  0.612061	T   T   T
 0.333150  0.166458  0.500011	T   T   T
 0.333774  0.667176  0.499957	T   T   T
 0.833094  0.166148  0.500058	T   T   T
 0.833428  0.667096  0.499828	T   T   T
 0.166667  0.333148  0.471135	T   T   T
 0.166517  0.833453  0.471113	T   T   T
 0.666632  0.333436  0.471165	T   T   T
 0.666885  0.833346  0.471204	T   T   T
 0.000019 -0.000003  0.359105	T   T   T
 0.000014  0.500022  0.359097	T   T   T
 0.499965 -0.000015  0.359113	T   T   T
 0.499983  0.499990  0.359115	T   T   T
 0.331966  0.166655  0.584394	T   T   T
 0.337610  0.670913  0.583006	T   T   T
 0.831265  0.163647  0.583715	T   T   T
 0.832960  0.668643  0.583820	T   T   T
 0.000439 -0.000011  0.529127	T   T   T
-0.000291  0.500009  0.528559	T   T   T
 0.499910  0.000968  0.528596	T   T   T
 0.500326  0.499595  0.528701	T   T   T
 0.333241  0.166588  0.416017	T   T   T
 0.333299  0.666684  0.416018	T   T   T
 0.833368  0.166637  0.416077	T   T   T
 0.833413  0.666758  0.416087	T   T   T
 0.165243  0.341033  0.639145	T   T   T
 0.166406  0.831503  0.640462	T   T   T
 0.664869  0.333000  0.641068	T   T   T
 0.668686  0.833852  0.641443	T   T   T
 0.218850  0.142863  0.726174	T   T   T
 0.223892  0.175959  0.765649	T   T   T
