C1 O25 Ce12
1
 7.707464  0.000000  0.000000
-3.853732  6.674860  0.000000
 0.000000  0.000000 28.319031
Ce O C O
12 24 1 1
Selective Dynamics
Direct
 0.166574  0.333221  0.386977	T   T   T
 0.166900  0.833561  0.386341	T   T   T
 0.666570  0.333059  0.386546	T   T   T
 0.666692  0.833614  0.386396	T   T   T
 0.001474  0.000853  0.612126	T   T   T
 0.001714  0.504906  0.611220	T   T   T
 0.502692  0.003019  0.612845	T   T   T
 0.506231  0.504992  0.611016	T   T   T
 0.333974  0.166319  0.499457	T   T   T
 0.334551  0.668871  0.499167	T   T   T
 0.833159  0.166617  0.499538	T   T   T
 0.833661  0.667159  0.498615	T   T   T
 0.166971  0.333636  0.470912	T   T   T
 0.166019  0.833105  0.470519	T   T   T
 0.667432  0.334943  0.470323	T   T   T
 0.667239  0.832863  0.470407	T   T   T
 0.000026 -0.000068  0.358095	T   T   T
 0.000093  0.500153  0.358130	T   T   T
 0.499885 -0.000094  0.357920	T   T   T
 0.500008  0.500066  0.358129	T   T   T
 0.337645  0.162391  0.583421	T   T   T
 0.340077  0.680741  0.582596	T   T   T
 0.829211  0.164789  0.583899	T   T   T
 0.835687  0.669208  0.582953	T   T   T
 0.000190  0.000480  0.528334	T   T   T
-0.000026  0.500154  0.528238	T   T   T
 0.503230  0.003535  0.526359	T   T   T
 0.500548  0.500370  0.528346	T   T   T
 0.333426  0.166244  0.414977	T   T   T
 0.333605  0.667344  0.414958	T   T   T
 0.832885  0.166346  0.414949	T   T   T
 0.833567  0.666957  0.414700	T   T   T
 0.173965  0.341502  0.636756	T   T   T
 0.161823  0.831913  0.641950	T   T   T
 0.670801  0.339574  0.641053	T   T   T
 0.670490  0.832004  0.641287	T   T   T
 0.046675  0.204892  0.743890	T   T   T
 0.136555  0.306317  0.774770	T   T   T
