C1 O25 Ce12
1
 7.707464  0.000000  0.000000
-3.853732  6.674860  0.000000
 0.000000  0.000000 28.319031
Ce O C O
12 24 1 1
Selective Dynamics
Direct
 0.166329  0.333572  0.386968	T   T   T
 0.166349  0.833553  0.386942	T   T   T
 0.666373  0.333572  0.386943	T   T   T
 0.666362  0.833552  0.386866	T   T   T
-0.000161  0.000263  0.612042	T   T   T
 0.000135  0.500447  0.611887	T   T   T
 0.500074  0.000471  0.612113	T   T   T
 0.500324  0.500763  0.612092	T   T   T
 0.333218  0.167087  0.499469	T   T   T
 0.333251  0.667048  0.499475	T   T   T
 0.833118  0.166849  0.499481	T   T   T
 0.833229  0.667024  0.499457	T   T   T
 0.166409  0.333826  0.470587	T   T   T
 0.166484  0.833432  0.470531	T   T   T
 0.666617  0.333664  0.470543	T   T   T
 0.666356  0.833695  0.470665	T   T   T
-0.000476  0.000146  0.358612	T   T   T
-0.000412  0.500211  0.358629	T   T   T
 0.499682  0.000255  0.358616	T   T   T
 0.499771  0.500345  0.358626	T   T   T
 0.333343  0.167211  0.583675	T   T   T
 0.334635  0.667548  0.583322	T   T   T
 0.833072  0.165472  0.583270	T   T   T
 0.832875  0.668218  0.583250	T   T   T
 0.000447  0.000600  0.528354	T   T   T
-0.000210  0.500261  0.528416	T   T   T
 0.499692  0.000622  0.528496	T   T   T
 0.499777  0.500009  0.528440	T   T   T
 0.332981  0.166995  0.415585	T   T   T
 0.333148  0.666853  0.415597	T   T   T
 0.833074  0.166812  0.415645	T   T   T
 0.832933  0.666971  0.415608	T   T   T
 0.165902  0.334564  0.640389	T   T   T
 0.165918  0.832391  0.640230	T   T   T
 0.669774  0.335355  0.639847	T   T   T
 0.666429  0.833674  0.640816	T   T   T
 0.348419  0.202106  0.734127	T   T   T
 0.321426  0.229008  0.772507	T   T   T
