C1 O25 Ce12
1
 7.707464  0.000000  0.000000
-3.853732  6.674860  0.000000
 0.000000  0.000000 28.319031
Ce O C O
12 24 1 1
Selective Dynamics
Direct
 0.165006  0.330372  0.387881	T   T   T
 0.164937  0.830296  0.388077	T   T   T
 0.664888  0.330332  0.387899	T   T   T
 0.664853  0.830275  0.387910	T   T   T
-0.002349 -0.002865  0.612957	T   T   T
-0.002097  0.497229  0.613010	T   T   T
 0.498532 -0.002632  0.612982	T   T   T
 0.498648  0.498079  0.614384	T   T   T
 0.331912  0.164608  0.500654	T   T   T
 0.331844  0.663754  0.500623	T   T   T
 0.831678  0.164082  0.500400	T   T   T
 0.831078  0.663769  0.500591	T   T   T
 0.164370  0.330236  0.471632	T   T   T
 0.164940  0.830727  0.471628	T   T   T
 0.665192  0.330348  0.471703	T   T   T
 0.665342  0.831244  0.471625	T   T   T
-0.001685 -0.003150  0.359687	T   T   T
-0.001577  0.497102  0.359630	T   T   T
 0.498105 -0.003290  0.359641	T   T   T
 0.498119  0.496909  0.359543	T   T   T
 0.332730  0.166469  0.584918	T   T   T
 0.331972  0.662973  0.584954	T   T   T
 0.831377  0.163903  0.583868	T   T   T
 0.829983  0.663063  0.584847	T   T   T
-0.001270 -0.003083  0.529579	T   T   T
-0.001185  0.498352  0.529549	T   T   T
 0.497269 -0.003259  0.529588	T   T   T
 0.498264  0.497705  0.529331	T   T   T
 0.331979  0.164156  0.416710	T   T   T
 0.331791  0.663554  0.416743	T   T   T
 0.831517  0.163809  0.416500	T   T   T
 0.831143  0.663378  0.416693	T   T   T
 0.158965  0.327707  0.641839	T   T   T
 0.165238  0.831651  0.641506	T   T   T
 0.667455  0.328324  0.641711	T   T   T
 0.666139  0.833111  0.641633	T   T   T
 0.445308  0.419093  0.714527	T   T   T
 0.397370  0.348335  0.751164	T   T   T
