C1 O25 Ce12
1
 7.707464  0.000000  0.000000
-3.853732  6.674860  0.000000
 0.000000  0.000000 28.319031
Ce O C O
12 24 1 1
Selective Dynamics
Direct
 0.166682  0.333280  0.387173	T   T   T
 0.166628  0.833380  0.387501	T   T   T
 0.666633  0.333357  0.387236	T   T   T
 0.666714  0.833321  0.387185	T   T   T
-0.000091 -0.001075  0.612566	T   T   T
 0.001376  0.499295  0.612240	T   T   T
 0.500869 -0.001887  0.612248	T   T   T
 0.499939  0.498304  0.614093	T   T   T
 0.333627  0.167277  0.500154	T   T   T
 0.333733  0.666203  0.499867	T   T   T
 0.833507  0.166333  0.499786	T   T   T
 0.832647  0.666376  0.500121	T   T   T
 0.166964  0.333503  0.471248	T   T   T
 0.166725  0.833236  0.471334	T   T   T
 0.666546  0.333424  0.471282	T   T   T
 0.666474  0.832995  0.471297	T   T   T
-0.000031  0.000013  0.358954	T   T   T
 0.000024  0.500000  0.358943	T   T   T
 0.500012 -0.000028  0.358960	T   T   T
 0.499984  0.500038  0.358905	T   T   T
 0.334476  0.168111  0.584659	T   T   T
 0.334927  0.665535  0.584300	T   T   T
 0.834294  0.162977  0.582979	T   T   T
 0.831828  0.666310  0.584433	T   T   T
 0.001119 -0.000773  0.528454	T   T   T
 0.000538  0.500686  0.528582	T   T   T
 0.498949 -0.000729  0.528543	T   T   T
 0.499816  0.499681  0.529177	T   T   T
 0.333420  0.166945  0.415911	T   T   T
 0.333479  0.666498  0.415934	T   T   T
 0.833375  0.166647  0.415804	T   T   T
 0.833052  0.666568  0.415941	T   T   T
 0.164235  0.332163  0.640985	T   T   T
 0.167474  0.833933  0.641146	T   T   T
 0.672264  0.329844  0.640235	T   T   T
 0.665855  0.831501  0.641682	T   T   T
 0.486987  0.416050  0.725055	T   T   T
 0.504951  0.378486  0.763203	T   T   T
