C1 O25 Ce12
1
 7.707464  0.000000  0.000000
-3.853732  6.674860  0.000000
 0.000000  0.000000 28.319031
Ce O C O
12 24 1 1
Selective Dynamics
Direct
 0.166662  0.333337  0.388140	T   T   T
 0.166663  0.833325  0.388140	T   T   T
 0.666677  0.333335  0.388140	T   T   T
 0.666670  0.833336  0.388142	T   T   T
 0.000185  0.000410  0.611768	T   T   T
-0.001072  0.499747  0.611052	T   T   T
 0.500415  0.000464  0.611764	T   T   T
 0.499921  0.499627  0.611943	T   T   T
 0.333333  0.166688  0.500042	T   T   T
 0.333412  0.666680  0.500025	T   T   T
 0.833318  0.166608  0.500034	T   T   T
 0.833282  0.666698  0.500026	T   T   T
 0.166642  0.333339  0.470985	T   T   T
 0.166652  0.833306  0.470987	T   T   T
 0.666700  0.333341  0.470987	T   T   T
 0.666676  0.833348  0.470985	T   T   T
-0.000015 -0.000008  0.360481	T   T   T
 0.000006  0.500002  0.360479	T   T   T
 0.500007 -0.000013  0.360480	T   T   T
 0.500008  0.500020  0.360480	T   T   T
 0.333390  0.166464  0.582734	T   T   T
 0.333395  0.666823  0.582760	T   T   T
 0.833205  0.166596  0.582729	T   T   T
 0.833388  0.666724  0.582725	T   T   T
-0.000032 -0.000022  0.528973	T   T   T
-0.000033  0.499996  0.528954	T   T   T
 0.500015 -0.000017  0.528979	T   T   T
 0.500023  0.500031  0.528974	T   T   T
 0.333330  0.166662  0.417228	T   T   T
 0.333346  0.666673  0.417231	T   T   T
 0.833332  0.166653  0.417233	T   T   T
 0.833333  0.666676  0.417231	T   T   T
 0.166829  0.330373  0.638265	T   T   T
 0.167020  0.833776  0.639549	T   T   T
 0.665628  0.332086  0.639094	T   T   T
 0.666661  0.833647  0.639538	T   T   T
 0.000954  0.501710  0.724949	T   T   T
 0.148242  0.501558  0.725566	T   T   T
