C1 O25 Ce12
1
 7.707464  0.000000  0.000000
-3.853732  6.674860  0.000000
 0.000000  0.000000 28.319031
Ce O C O
12 24 1 1
Selective Dynamics
Direct
 0.166404  0.332849  0.387064	T   T   T
 0.166438  0.833034  0.387036	T   T   T
 0.666198  0.332808  0.387065	T   T   T
 0.666313  0.832860  0.387111	T   T   T
-0.000249 -0.000787  0.612075	T   T   T
-0.000238  0.499201  0.611929	T   T   T
 0.499678 -0.000715  0.612110	T   T   T
 0.500047  0.499717  0.612197	T   T   T
 0.333034  0.166207  0.499697	T   T   T
 0.332959  0.665984  0.499577	T   T   T
 0.832875  0.165761  0.499591	T   T   T
 0.832972  0.666082  0.499538	T   T   T
 0.166192  0.333058  0.470613	T   T   T
 0.165903  0.831956  0.470501	T   T   T
 0.666746  0.333061  0.470598	T   T   T
 0.666235  0.832515  0.470706	T   T   T
 0.000321 -0.000067  0.358741	T   T   T
-0.000296  0.499589  0.358875	T   T   T
 0.499342 -0.000079  0.358717	T   T   T
 0.499381  0.499028  0.358751	T   T   T
 0.333163  0.166037  0.583752	T   T   T
 0.334207  0.667016  0.583322	T   T   T
 0.832252  0.163807  0.583242	T   T   T
 0.833077  0.667668  0.583226	T   T   T
 0.000725 -0.000156  0.528408	T   T   T
-0.000539  0.498938  0.528664	T   T   T
 0.499048 -0.000360  0.528485	T   T   T
 0.499374  0.498876  0.528623	T   T   T
 0.333023  0.166269  0.415831	T   T   T
 0.333620  0.666409  0.415692	T   T   T
 0.832658  0.165536  0.415730	T   T   T
 0.832603  0.666384  0.415684	T   T   T
 0.165792  0.333288  0.640204	T   T   T
 0.165653  0.831359  0.640474	T   T   T
 0.669967  0.334655  0.639740	T   T   T
 0.665828  0.832140  0.640816	T   T   T
 0.352685  0.145475  0.732543	T   T   T
 0.323279  0.096820  0.771187	T   T   T
