C1 O25 Ce12
1
 7.707464  0.000000  0.000000
-3.853732  6.674860  0.000000
 0.000000  0.000000 28.319031
Ce O C O
12 24 1 1
Selective Dynamics
Direct
 0.167112  0.331962  0.388015	T   T   T
 0.167139  0.831326  0.387977	T   T   T
 0.667650  0.331890  0.387970	T   T   T
 0.667211  0.831714  0.388155	T   T   T
 0.001478 -0.002819  0.612867	T   T   T
 0.000786  0.498761  0.614320	T   T   T
 0.501326 -0.002262  0.612920	T   T   T
 0.501878  0.497834  0.612870	T   T   T
 0.334364  0.164801  0.500361	T   T   T
 0.333744  0.664657  0.500623	T   T   T
 0.834651  0.165555  0.500626	T   T   T
 0.834669  0.664731  0.500460	T   T   T
 0.167901  0.331327  0.471641	T   T   T
 0.167764  0.832228  0.471681	T   T   T
 0.667024  0.331460  0.471689	T   T   T
 0.667659  0.831545  0.471552	T   T   T
 0.000332 -0.001608  0.359800	T   T   T
 0.000776  0.498197  0.359566	T   T   T
 0.500744 -0.001815  0.359553	T   T   T
 0.500569  0.498624  0.359793	T   T   T
 0.334815  0.163809  0.583794	T   T   T
 0.332455  0.663620  0.584951	T   T   T
 0.835903  0.167102  0.584989	T   T   T
 0.835631  0.663832  0.584715	T   T   T
 0.000143 -0.001968  0.529523	T   T   T
 0.001147  0.498203  0.529277	T   T   T
 0.501893 -0.002485  0.529492	T   T   T
 0.501291  0.498999  0.529549	T   T   T
 0.334199  0.164861  0.416492	T   T   T
 0.333573  0.665055  0.416739	T   T   T
 0.833947  0.165452  0.416736	T   T   T
 0.834333  0.664700  0.416579	T   T   T
 0.171459  0.328059  0.641871	T   T   T
 0.169240  0.833979  0.641623	T   T   T
 0.664096  0.329626  0.641465	T   T   T
 0.668521  0.831300  0.641355	T   T   T
 0.023980  0.444207  0.714811	T   T   T
 0.049710  0.401317  0.751716	T   T   T
