C1 O25 Ce12
1
 7.707464  0.000000  0.000000
-3.853732  6.674860  0.000000
 0.000000  0.000000 28.319031
Ce O C O
12 24 1 1
Selective Dynamics
Direct
 0.165704  0.332226  0.387153	T   T   T
 0.165639  0.832128  0.387084	T   T   T
 0.665536  0.332116  0.387094	T   T   T
 0.665562  0.832171  0.387080	T   T   T
-0.001255 -0.000920  0.611839	T   T   T
-0.001281  0.498824  0.611861	T   T   T
 0.498643 -0.000493  0.612305	T   T   T
 0.499218  0.499615  0.612150	T   T   T
 0.332656  0.166185  0.499630	T   T   T
 0.332680  0.665815  0.499598	T   T   T
 0.832207  0.165614  0.499561	T   T   T
 0.832087  0.665772  0.499507	T   T   T
 0.166871  0.332954  0.470667	T   T   T
 0.165895  0.832479  0.470785	T   T   T
 0.664940  0.332600  0.470626	T   T   T
 0.665199  0.831813  0.470632	T   T   T
-0.001333 -0.001343  0.358848	T   T   T
-0.001315  0.498469  0.358858	T   T   T
 0.498938 -0.001293  0.358844	T   T   T
 0.498811  0.498661  0.358794	T   T   T
 0.331772  0.164784  0.583448	T   T   T
 0.332509  0.666589  0.583205	T   T   T
 0.832268  0.165134  0.583772	T   T   T
 0.832872  0.667360  0.582891	T   T   T
-0.000966  0.000246  0.528387	T   T   T
-0.001632  0.497804  0.528366	T   T   T
 0.499915 -0.000017  0.528731	T   T   T
 0.498914  0.498986  0.528708	T   T   T
 0.332116  0.165297  0.415772	T   T   T
 0.332188  0.665507  0.415733	T   T   T
 0.832352  0.165614  0.416017	T   T   T
 0.832287  0.665477  0.415727	T   T   T
 0.167539  0.333216  0.640443	T   T   T
 0.163312  0.829776  0.640041	T   T   T
 0.667284  0.335282  0.639613	T   T   T
 0.665177  0.832614  0.640514	T   T   T
 0.346784  0.061008  0.736445	T   T   T
 0.245463 -0.028069  0.767385	T   T   T
