C1 O25 Ce12
1
 7.707464  0.000000  0.000000
-3.853732  6.674860  0.000000
 0.000000  0.000000 28.319031
Ce O C O
12 24 1 1
Selective Dynamics
Direct
 0.166778  0.333318  0.387323	T   T   T
 0.166836  0.833485  0.387573	T   T   T
 0.666472  0.333194  0.387242	T   T   T
 0.666565  0.833318  0.387237	T   T   T
-0.002536 -0.001639  0.612208	T   T   T
-0.002043  0.499060  0.612168	T   T   T
 0.498846 -0.001060  0.612488	T   T   T
 0.498413  0.498383  0.614129	T   T   T
 0.333449  0.167128  0.500080	T   T   T
 0.333437  0.666269  0.500049	T   T   T
 0.832902  0.166416  0.499635	T   T   T
 0.832659  0.666220  0.499838	T   T   T
 0.166872  0.333424  0.471217	T   T   T
 0.166478  0.833196  0.471198	T   T   T
 0.666489  0.333473  0.471165	T   T   T
 0.666452  0.832950  0.471207	T   T   T
-0.000072 -0.000097  0.358962	T   T   T
-0.000007  0.500059  0.358942	T   T   T
 0.500000 -0.000048  0.358950	T   T   T
 0.500078  0.500084  0.358883	T   T   T
 0.333127  0.167381  0.584603	T   T   T
 0.333848  0.666389  0.584409	T   T   T
 0.829037  0.163182  0.583150	T   T   T
 0.831282  0.665801  0.584275	T   T   T
 0.000331 -0.000767  0.528748	T   T   T
 0.000140  0.500670  0.528822	T   T   T
 0.497810 -0.000909  0.528612	T   T   T
 0.499775  0.499649  0.529115	T   T   T
 0.333499  0.166873  0.415943	T   T   T
 0.333527  0.666630  0.415963	T   T   T
 0.833215  0.166586  0.415841	T   T   T
 0.833045  0.666539  0.415937	T   T   T
 0.157484  0.329678  0.640395	T   T   T
 0.166044  0.833536  0.641062	T   T   T
 0.668393  0.331868  0.640972	T   T   T
 0.666037  0.832238  0.641671	T   T   T
 0.429763  0.417183  0.725073	T   T   T
 0.373353  0.378117  0.763028	T   T   T
