C1 O25 Ce12
1
 7.707464  0.000000  0.000000
-3.853732  6.674860  0.000000
 0.000000  0.000000 28.319031
Ce O C O
12 24 1 1
Selective Dynamics
Direct
 0.165399  0.333382  0.388004	T   T   T
 0.165560  0.833447  0.387774	T   T   T
 0.665349  0.333296  0.387810	T   T   T
 0.665311  0.833398  0.387820	T   T   T
-0.002305 -0.000352  0.612811	T   T   T
-0.002102  0.499772  0.612851	T   T   T
 0.498980  0.000150  0.614447	T   T   T
 0.498360  0.500103  0.612898	T   T   T
 0.332278  0.166230  0.500562	T   T   T
 0.332152  0.667190  0.500554	T   T   T
 0.831555  0.166432  0.500469	T   T   T
 0.831899  0.666625  0.500301	T   T   T
 0.165041  0.333058  0.471411	T   T   T
 0.164909  0.833232  0.471452	T   T   T
 0.665454  0.333634  0.471601	T   T   T
 0.665719  0.833224  0.471523	T   T   T
-0.001216  0.000353  0.359470	T   T   T
-0.001154  0.500018  0.359409	T   T   T
 0.498767  0.000006  0.359351	T   T   T
 0.498481  0.500073  0.359583	T   T   T
 0.332808  0.165398  0.584828	T   T   T
 0.332398  0.668313  0.584832	T   T   T
 0.830503  0.166130  0.584627	T   T   T
 0.830895  0.666405  0.583756	T   T   T
-0.000632  0.001008  0.529476	T   T   T
-0.000740  0.499833  0.529458	T   T   T
 0.498568 -0.000294  0.529114	T   T   T
 0.497050  0.499317  0.529460	T   T   T
 0.332303  0.166624  0.416493	T   T   T
 0.332082  0.666943  0.416545	T   T   T
 0.831575  0.166615  0.416461	T   T   T
 0.832039  0.666540  0.416419	T   T   T
 0.165180  0.332864  0.641369	T   T   T
 0.158436  0.829690  0.641612	T   T   T
 0.667466  0.337525  0.641595	T   T   T
 0.666623  0.832186  0.641608	T   T   T
 0.442826  0.001874  0.716291	T   T   T
 0.389959 -0.000241  0.754070	T   T   T
