C1 O25 Ce12
1
 7.707464  0.000000  0.000000
-3.853732  6.674860  0.000000
 0.000000  0.000000 28.319031
Ce O C O
12 24 1 1
Selective Dynamics
Direct
 0.166666  0.333333  0.388504	T   T   T
 0.166661  0.833332  0.388503	T   T   T
 0.666669  0.333338  0.388504	T   T   T
 0.666670  0.833331  0.388504	T   T   T
-0.000311  0.000498  0.611838	T   T   T
 0.000203  0.499985  0.611316	T   T   T
 0.500073 -0.000121  0.611407	T   T   T
 0.499655  0.500091  0.611376	T   T   T
 0.333307  0.166677  0.500010	T   T   T
 0.333340  0.666650  0.500010	T   T   T
 0.833355  0.166659  0.500004	T   T   T
 0.833329  0.666688  0.500008	T   T   T
 0.166663  0.333337  0.471625	T   T   T
 0.166664  0.833327  0.471628	T   T   T
 0.666672  0.333338  0.471628	T   T   T
 0.666667  0.833334  0.471627	T   T   T
-0.000001  0.000001  0.360825	T   T   T
-0.000002  0.499999  0.360825	T   T   T
 0.500001  0.000001  0.360825	T   T   T
 0.500001  0.500001  0.360825	T   T   T
 0.333355  0.166543  0.583043	T   T   T
 0.333316  0.666859  0.583031	T   T   T
 0.833311  0.166691  0.583032	T   T   T
 0.833368  0.666609  0.583039	T   T   T
-0.000005 -0.000021  0.528346	T   T   T
-0.000013  0.500004  0.528378	T   T   T
 0.500001  0.000004  0.528374	T   T   T
 0.500022  0.500007  0.528357	T   T   T
 0.333335  0.166669  0.416964	T   T   T
 0.333333  0.666666  0.416964	T   T   T
 0.833335  0.166668  0.416964	T   T   T
 0.833332  0.666666  0.416965	T   T   T
 0.170173  0.337086  0.638248	T   T   T
 0.166741  0.833255  0.639250	T   T   T
 0.666767  0.333247  0.639289	T   T   T
 0.666050  0.832892  0.639145	T   T   T
-0.004305  0.160820  0.723937	T   T   T
 0.001601  0.168871  0.764999	T   T   T
