C1 O25 Ce12
1
 7.707464  0.000000  0.000000
-3.853732  6.674860  0.000000
 0.000000  0.000000 28.319031
Ce O C O
12 24 1 1
Selective Dynamics
Direct
 0.166566  0.330584  0.388092	T   T   T
 0.166430  0.830450  0.388201	T   T   T
 0.666451  0.330576  0.388026	T   T   T
 0.666493  0.830478  0.388074	T   T   T
-0.000272 -0.003847  0.613069	T   T   T
 0.000618  0.496046  0.612970	T   T   T
 0.500386 -0.004081  0.612916	T   T   T
 0.500356  0.497559  0.614118	T   T   T
 0.333393  0.164079  0.500758	T   T   T
 0.333539  0.663334  0.500653	T   T   T
 0.833189  0.163493  0.500588	T   T   T
 0.832926  0.663312  0.500708	T   T   T
 0.165626  0.329779  0.471860	T   T   T
 0.166266  0.830122  0.471633	T   T   T
 0.667157  0.330016  0.471755	T   T   T
 0.667063  0.831259  0.471824	T   T   T
-0.000088 -0.002969  0.359904	T   T   T
-0.000167  0.497396  0.359866	T   T   T
 0.499319 -0.002912  0.359820	T   T   T
 0.499608  0.497022  0.359673	T   T   T
 0.335270  0.165773  0.584956	T   T   T
 0.334305  0.662388  0.584816	T   T   T
 0.833056  0.162500  0.583834	T   T   T
 0.831444  0.661699  0.584766	T   T   T
 0.000638 -0.003729  0.529746	T   T   T
 0.000932  0.497645  0.529652	T   T   T
 0.498554 -0.003886  0.529579	T   T   T
 0.499897  0.497107  0.529153	T   T   T
 0.333350  0.164244  0.416810	T   T   T
 0.333427  0.663620  0.416858	T   T   T
 0.833170  0.163809  0.416637	T   T   T
 0.832648  0.663610  0.416733	T   T   T
 0.162285  0.327243  0.641441	T   T   T
 0.166314  0.830082  0.641388	T   T   T
 0.670454  0.326761  0.641744	T   T   T
 0.667936  0.832199  0.641444	T   T   T
 0.500154  0.424815  0.713958	T   T   T
 0.501311  0.359091  0.750094	T   T   T
