C1 O25 Ce12
1
 7.707464  0.000000  0.000000
-3.853732  6.674860  0.000000
 0.000000  0.000000 28.319031
Ce O C O
12 24 1 1
Selective Dynamics
Direct
 0.166929  0.332950  0.386888	T   T   T
 0.167043  0.833264  0.386767	T   T   T
 0.666929  0.332985  0.386833	T   T   T
 0.667078  0.833230  0.386781	T   T   T
 0.000474 -0.000057  0.611668	T   T   T
 0.001045  0.500352  0.611561	T   T   T
 0.500314 -0.000146  0.612290	T   T   T
 0.500799  0.500798  0.611465	T   T   T
 0.333874  0.166399  0.499328	T   T   T
 0.333777  0.666532  0.499313	T   T   T
 0.833611  0.166326  0.499320	T   T   T
 0.833813  0.666599  0.499215	T   T   T
 0.167067  0.333005  0.470402	T   T   T
 0.166964  0.833147  0.470419	T   T   T
 0.667052  0.333120  0.470448	T   T   T
 0.667215  0.833089  0.470441	T   T   T
 0.000357 -0.000202  0.358525	T   T   T
 0.000264  0.499804  0.358612	T   T   T
 0.500244 -0.000118  0.358526	T   T   T
 0.500313  0.499694  0.358571	T   T   T
 0.334713  0.166440  0.583227	T   T   T
 0.334526  0.667217  0.583142	T   T   T
 0.833039  0.166044  0.583180	T   T   T
 0.833577  0.667044  0.582704	T   T   T
 0.001020  0.000439  0.528185	T   T   T
 0.000688  0.499749  0.528123	T   T   T
 0.500239 -0.000327  0.528259	T   T   T
 0.500039  0.499487  0.528102	T   T   T
 0.333616  0.166360  0.415577	T   T   T
 0.333797  0.666609  0.415486	T   T   T
 0.833528  0.166230  0.415472	T   T   T
 0.833637  0.666583  0.415467	T   T   T
 0.167515  0.332798  0.639846	T   T   T
 0.165473  0.832286  0.639676	T   T   T
 0.669171  0.335990  0.639859	T   T   T
 0.667412  0.833108  0.639923	T   T   T
 0.473508  0.184398  0.728341	T   T   T
 0.483771  0.323196  0.745846	T   T   T
