C1 O25 Ce12
1
 7.707464  0.000000  0.000000
-3.853732  6.674860  0.000000
 0.000000  0.000000 28.319031
Ce O C O
12 24 1 1
Selective Dynamics
Direct
 0.167144  0.332917  0.386289	T   T   T
 0.167300  0.832943  0.386186	T   T   T
 0.667180  0.332817  0.386242	T   T   T
 0.667117  0.833040  0.386189	T   T   T
 0.001143  0.000096  0.611298	T   T   T
 0.002004  0.501112  0.610974	T   T   T
 0.501611  0.000893  0.611414	T   T   T
 0.501822  0.501010  0.611013	T   T   T
 0.334309  0.166706  0.498699	T   T   T
 0.334573  0.667259  0.498660	T   T   T
 0.834152  0.166763  0.498733	T   T   T
 0.834271  0.666905  0.498662	T   T   T
 0.167581  0.333643  0.469845	T   T   T
 0.168089  0.833364  0.469763	T   T   T
 0.667459  0.333111  0.469703	T   T   T
 0.666922  0.833504  0.469798	T   T   T
 0.000553 -0.000187  0.357879	T   T   T
 0.000420  0.499292  0.357934	T   T   T
 0.500544 -0.000273  0.357790	T   T   T
 0.500256  0.499324  0.357943	T   T   T
 0.334225  0.167046  0.582519	T   T   T
 0.335153  0.667713  0.582239	T   T   T
 0.835223  0.166985  0.582515	T   T   T
 0.834893  0.667716  0.582696	T   T   T
 0.000640 -0.000329  0.527606	T   T   T
 0.000781  0.500415  0.527641	T   T   T
 0.501624  0.000966  0.527703	T   T   T
 0.501678  0.500412  0.527650	T   T   T
 0.333895  0.166046  0.414816	T   T   T
 0.334061  0.666670  0.414759	T   T   T
 0.833659  0.166108  0.414884	T   T   T
 0.834012  0.666648  0.414868	T   T   T
 0.169262  0.335318  0.639112	T   T   T
 0.168575  0.834078  0.639367	T   T   T
 0.668474  0.334087  0.639412	T   T   T
 0.667275  0.833770  0.639416	T   T   T
 0.054700  0.278539  0.742562	T   T   T
 0.104076  0.440221  0.753014	T   T   T
