C1 O25 Ce12
1
 7.707464  0.000000  0.000000
-3.853732  6.674860  0.000000
 0.000000  0.000000 28.319031
Ce O C O
12 24 1 1
Selective Dynamics
Direct
 0.168728  0.333892  0.386239	T   T   T
 0.168701  0.833855  0.386276	T   T   T
 0.668796  0.334010  0.386268	T   T   T
 0.668777  0.833880  0.386356	T   T   T
 0.002461  0.000081  0.611129	T   T   T
 0.002157  0.500407  0.611962	T   T   T
 0.501844  0.000036  0.611288	T   T   T
 0.502567  0.500426  0.611265	T   T   T
 0.335632  0.167221  0.498729	T   T   T
 0.335328  0.667169  0.498845	T   T   T
 0.835604  0.167546  0.498880	T   T   T
 0.835591  0.667202  0.498960	T   T   T
 0.169103  0.334185  0.469789	T   T   T
 0.168604  0.833785  0.469940	T   T   T
 0.668841  0.334326  0.469980	T   T   T
 0.668826  0.833598  0.469919	T   T   T
 0.002189  0.000909  0.357958	T   T   T
 0.001994  0.500216  0.357959	T   T   T
 0.502072  0.000577  0.358080	T   T   T
 0.501938  0.500335  0.358036	T   T   T
 0.335627  0.166447  0.582449	T   T   T
 0.334954  0.666678  0.582980	T   T   T
 0.835501  0.167498  0.582921	T   T   T
 0.836117  0.667326  0.582571	T   T   T
 0.002314  0.001130  0.527718	T   T   T
 0.002571  0.500525  0.527963	T   T   T
 0.502330  0.000057  0.527684	T   T   T
 0.501952  0.500737  0.527805	T   T   T
 0.335491  0.166955  0.414939	T   T   T
 0.335487  0.667556  0.414907	T   T   T
 0.835092  0.167108  0.415015	T   T   T
 0.835515  0.667280  0.414994	T   T   T
 0.169648  0.331982  0.639899	T   T   T
 0.168505  0.833700  0.639615	T   T   T
 0.667476  0.333604  0.639349	T   T   T
 0.669023  0.833719  0.639577	T   T   T
 0.020334  0.351919  0.733542	T   T   T
 0.038987  0.238811  0.756002	T   T   T
