C1 O25 Ce12
1
 7.707464  0.000000  0.000000
-3.853732  6.674860  0.000000
 0.000000  0.000000 28.319031
Ce O C O
12 24 1 1
Selective Dynamics
Direct
 0.166335  0.332912  0.386660	T   T   T
 0.166311  0.832983  0.386672	T   T   T
 0.666219  0.332895  0.386710	T   T   T
 0.666269  0.832916  0.386687	T   T   T
-0.000653 -0.001114  0.611840	T   T   T
-0.000802  0.498919  0.611618	T   T   T
 0.499196 -0.001240  0.611589	T   T   T
 0.499448  0.499379  0.611448	T   T   T
 0.332490  0.165751  0.499167	T   T   T
 0.332550  0.665775  0.499126	T   T   T
 0.832791  0.165926  0.499179	T   T   T
 0.832629  0.665888  0.499167	T   T   T
 0.165704  0.332511  0.470245	T   T   T
 0.165993  0.832548  0.470252	T   T   T
 0.666226  0.332498  0.470284	T   T   T
 0.666129  0.832840  0.470324	T   T   T
-0.000030 -0.000334  0.358458	T   T   T
-0.000170  0.499880  0.358521	T   T   T
 0.499364 -0.000402  0.358465	T   T   T
 0.499505  0.499467  0.358412	T   T   T
 0.332212  0.165827  0.583022	T   T   T
 0.332700  0.665068  0.582844	T   T   T
 0.833260  0.165951  0.583031	T   T   T
 0.831960  0.665494  0.582975	T   T   T
-0.000642 -0.000937  0.528157	T   T   T
-0.000779  0.499277  0.528120	T   T   T
 0.499289 -0.000777  0.528173	T   T   T
 0.499123  0.498809  0.527949	T   T   T
 0.333009  0.166367  0.415470	T   T   T
 0.333187  0.666232  0.415410	T   T   T
 0.832772  0.165977  0.415318	T   T   T
 0.832598  0.666192  0.415405	T   T   T
 0.166214  0.332888  0.640167	T   T   T
 0.165522  0.830960  0.639451	T   T   T
 0.665384  0.331626  0.639890	T   T   T
 0.665834  0.832738  0.639767	T   T   T
 0.330633  0.241286  0.733733	T   T   T
 0.444430  0.402557  0.744087	T   T   T
