C1 O25 Ce12
1
 7.707464  0.000000  0.000000
-3.853732  6.674860  0.000000
 0.000000  0.000000 28.319031
Ce O C O
12 24 1 1
Selective Dynamics
Direct
 0.166239  0.333562  0.386412	T   T   T
 0.166137  0.833615  0.386488	T   T   T
 0.666132  0.333559  0.386598	T   T   T
 0.666188  0.833614  0.386542	T   T   T
 0.000366  0.001364  0.611895	T   T   T
 0.000210  0.501374  0.611384	T   T   T
 0.500250  0.001330  0.611390	T   T   T
 0.500796  0.501857  0.611252	T   T   T
 0.332761  0.167324  0.499083	T   T   T
 0.332960  0.667252  0.498996	T   T   T
 0.833357  0.167458  0.499098	T   T   T
 0.833100  0.667609  0.499023	T   T   T
 0.166343  0.333968  0.469985	T   T   T
 0.165980  0.833826  0.470209	T   T   T
 0.666355  0.334196  0.470176	T   T   T
 0.666349  0.833722  0.470187	T   T   T
-0.000360  0.000205  0.358067	T   T   T
-0.000506  0.500248  0.358145	T   T   T
 0.499406  0.000223  0.358368	T   T   T
 0.499472  0.500053  0.358145	T   T   T
 0.332965  0.168015  0.583014	T   T   T
 0.333739  0.667805  0.582690	T   T   T
 0.833885  0.167867  0.583012	T   T   T
 0.833511  0.668238  0.582758	T   T   T
 0.000092  0.001438  0.528054	T   T   T
-0.000102  0.500641  0.527962	T   T   T
 0.500054  0.001106  0.528003	T   T   T
 0.499465  0.500485  0.527854	T   T   T
 0.332695  0.166881  0.415177	T   T   T
 0.332857  0.667016  0.415148	T   T   T
 0.832895  0.166871  0.415194	T   T   T
 0.832790  0.667116  0.415081	T   T   T
 0.167152  0.336646  0.639788	T   T   T
 0.166847  0.833992  0.639537	T   T   T
 0.666434  0.334650  0.639755	T   T   T
 0.666727  0.834637  0.639600	T   T   T
 0.208479  0.217444  0.734334	T   T   T
 0.327969  0.368328  0.749387	T   T   T
