C1 O25 Ce12
1
 7.707464  0.000000  0.000000
-3.853732  6.674860  0.000000
 0.000000  0.000000 28.319031
Ce O C O
12 24 1 1
Selective Dynamics
Direct
 0.166904  0.333807  0.386044	T   T   T
 0.166911  0.833810  0.386034	T   T   T
 0.666904  0.333806  0.386027	T   T   T
 0.666900  0.833810  0.386034	T   T   T
-0.000129 -0.000257  0.610967	T   T   T
-0.000014  0.500250  0.611027	T   T   T
 0.500047  0.000095  0.611138	T   T   T
 0.500264  0.500250  0.611027	T   T   T
 0.333483  0.166930  0.498555	T   T   T
 0.333457  0.666916  0.498559	T   T   T
 0.833445  0.166930  0.498555	T   T   T
 0.833422  0.666844  0.498522	T   T   T
 0.166749  0.333497  0.469703	T   T   T
 0.166942  0.833770  0.469624	T   T   T
 0.666731  0.333461  0.469650	T   T   T
 0.666828  0.833770  0.469624	T   T   T
 0.000168  0.000337  0.357755	T   T   T
 0.000228  0.500622  0.357729	T   T   T
 0.500221  0.000442  0.357841	T   T   T
 0.500395  0.500622  0.357729	T   T   T
 0.333763  0.167121  0.582348	T   T   T
 0.333251  0.666504  0.582454	T   T   T
 0.833358  0.167121  0.582348	T   T   T
 0.833111  0.666224  0.582345	T   T   T
 0.000006  0.000012  0.527465	T   T   T
 0.000223  0.500353  0.527430	T   T   T
 0.500009  0.000017  0.527510	T   T   T
 0.500130  0.500353  0.527430	T   T   T
 0.333525  0.167308  0.414694	T   T   T
 0.333401  0.666804  0.414717	T   T   T
 0.833782  0.167308  0.414694	T   T   T
 0.833493  0.666988  0.414764	T   T   T
 0.166309  0.332616  0.639326	T   T   T
 0.166443  0.833608  0.639107	T   T   T
 0.666703  0.333404  0.639470	T   T   T
 0.667166  0.833608  0.639107	T   T   T
 0.217422  0.434843  0.743261	T   T   T
 0.136947  0.273895  0.757176	T   T   T
