C1 O25 Ce12
1
 7.707464  0.000000  0.000000
-3.853732  6.674860  0.000000
 0.000000  0.000000 28.319031
Ce O C O
12 24 1 1
Selective Dynamics
Direct
 0.164855  0.332794  0.386799	T   T   T
 0.164666  0.832672  0.386746	T   T   T
 0.665003  0.332973  0.386757	T   T   T
 0.664958  0.832737  0.386773	T   T   T
 0.998120  0.998983  0.611904	T   T   T
 0.998511  0.498736  0.611954	T   T   T
 0.498274  0.999106  0.611816	T   T   T
 0.498957  0.499428  0.612164	T   T   T
 0.331638  0.166378  0.499363	T   T   T
 0.331652  0.665715  0.499382	T   T   T
 0.831688  0.165925  0.499404	T   T   T
 0.831614  0.665940  0.499314	T   T   T
 0.165013  0.332782  0.470463	T   T   T
 0.164320  0.832316  0.470384	T   T   T
 0.665176  0.333202  0.470445	T   T   T
 0.665074  0.832542  0.470470	T   T   T
-0.001830 -0.000821  0.358391	T   T   T
-0.001816  0.499590  0.358373	T   T   T
 0.498380 -0.000469  0.358629	T   T   T
 0.498764  0.499724  0.358426	T   T   T
 0.331993  0.166524  0.583441	T   T   T
 0.332433  0.665808  0.583397	T   T   T
 0.831334  0.164936  0.583272	T   T   T
 0.831428  0.666058  0.583063	T   T   T
-0.001218 -0.000055  0.528242	T   T   T
-0.001393  0.498750  0.528351	T   T   T
 0.498056  0.999268  0.528281	T   T   T
 0.498057  0.499243  0.528279	T   T   T
 0.331485  0.166477  0.415450	T   T   T
 0.331462  0.665577  0.415461	T   T   T
 0.832154  0.166367  0.415539	T   T   T
 0.831386  0.666063  0.415298	T   T   T
 0.163747  0.332257  0.640359	T   T   T
 0.164457  0.832292  0.640278	T   T   T
 0.665956  0.332653  0.639963	T   T   T
 0.664943  0.832466  0.640357	T   T   T
 0.317503  0.323126  0.772566	T   T   T
 0.409864  0.368603  0.738565	T   T   T
