C1 O25 Ce12
1
 7.707464  0.000000  0.000000
-3.853732  6.674860  0.000000
 0.000000  0.000000 28.319031
Ce O C O
12 24 1 1
Selective Dynamics
Direct
 0.165871  0.332283  0.386598	T   T   T
 0.165862  0.832327  0.386532	T   T   T
 0.665853  0.332298  0.386589	T   T   T
 0.665825  0.832303  0.386621	T   T   T
-0.001364 -0.001496  0.611619	T   T   T
-0.001327  0.498965  0.611458	T   T   T
 0.498655 -0.001228  0.611395	T   T   T
 0.498660  0.498940  0.611473	T   T   T
 0.332368  0.165688  0.499029	T   T   T
 0.332245  0.665568  0.498987	T   T   T
 0.832471  0.165664  0.499038	T   T   T
 0.832343  0.665648  0.499024	T   T   T
 0.165676  0.332560  0.470219	T   T   T
 0.165900  0.832103  0.470161	T   T   T
 0.665882  0.332286  0.470024	T   T   T
 0.665529  0.832380  0.470288	T   T   T
-0.000675 -0.001041  0.358357	T   T   T
-0.000845  0.498971  0.358262	T   T   T
 0.499089 -0.001017  0.358322	T   T   T
 0.499136  0.498810  0.358319	T   T   T
 0.331943  0.165761  0.582938	T   T   T
 0.331967  0.665218  0.582665	T   T   T
 0.832577  0.165473  0.582861	T   T   T
 0.831957  0.665657  0.582960	T   T   T
-0.000923 -0.001276  0.527852	T   T   T
-0.001758  0.498796  0.527805	T   T   T
 0.499092 -0.000605  0.527857	T   T   T
 0.499229  0.498773  0.527778	T   T   T
 0.332367  0.165800  0.415276	T   T   T
 0.332522  0.665406  0.415168	T   T   T
 0.832715  0.165528  0.415249	T   T   T
 0.832405  0.665833  0.415267	T   T   T
 0.165834  0.333082  0.639934	T   T   T
 0.165989  0.832357  0.639615	T   T   T
 0.665246  0.331655  0.639726	T   T   T
 0.664788  0.832276  0.639713	T   T   T
-0.024623  0.169586  0.748541	T   T   T
 0.975971  0.030913  0.734271	T   T   T
