C1 O25 Ce12
1
 7.707464  0.000000  0.000000
-3.853732  6.674860  0.000000
 0.000000  0.000000 28.319031
Ce O C O
12 24 1 1
Selective Dynamics
Direct
 0.166855  0.333831  0.387118	T   T   T
 0.167065  0.833945  0.387222	T   T   T
 0.666886  0.333738  0.387301	T   T   T
 0.666887  0.834001  0.387210	T   T   T
 0.000553  0.001813  0.612491	T   T   T
 0.000703  0.501887  0.612020	T   T   T
 0.500049  0.001044  0.612148	T   T   T
 0.500635  0.501713  0.612032	T   T   T
 0.333607  0.167792  0.499755	T   T   T
 0.333755  0.667564  0.499662	T   T   T
 0.833952  0.167700  0.499756	T   T   T
 0.834066  0.668237  0.499732	T   T   T
 0.167348  0.334580  0.470649	T   T   T
 0.167095  0.834290  0.470870	T   T   T
 0.667085  0.334426  0.470870	T   T   T
 0.667065  0.834214  0.470831	T   T   T
 0.000203  0.000704  0.358823	T   T   T
-0.000110  0.500032  0.358887	T   T   T
 0.500495  0.000776  0.358909	T   T   T
 0.500206  0.500207  0.358912	T   T   T
 0.333036  0.167656  0.583609	T   T   T
 0.333425  0.668209  0.583141	T   T   T
 0.834352  0.167920  0.583685	T   T   T
 0.834745  0.669233  0.583633	T   T   T
 0.000613  0.001589  0.528681	T   T   T
 0.000126  0.501056  0.528539	T   T   T
 0.500430  0.001174  0.528680	T   T   T
 0.500872  0.501230  0.528573	T   T   T
 0.333404  0.166904  0.415847	T   T   T
 0.333719  0.667637  0.415738	T   T   T
 0.833518  0.167044  0.415880	T   T   T
 0.833943  0.667720  0.415851	T   T   T
 0.169172  0.337871  0.640035	T   T   T
 0.167960  0.835209  0.640611	T   T   T
 0.667252  0.334474  0.640598	T   T   T
 0.665584  0.834280  0.640277	T   T   T
 0.001891  0.120787  0.768590	T   T   T
-0.018443  0.059733  0.730952	T   T   T
