C1 O25 Ce12
1
 7.707464  0.000000  0.000000
-3.853732  6.674860  0.000000
 0.000000  0.000000 28.319031
Ce O C O
12 24 1 1
Selective Dynamics
Direct
 0.166234  0.333247  0.386821	T   T   T
 0.166266  0.833265  0.386760	T   T   T
 0.666305  0.333286  0.386771	T   T   T
 0.666313  0.833291  0.386748	T   T   T
-0.000672 -0.000129  0.611999	T   T   T
-0.000758  0.500074  0.611787	T   T   T
 0.499322 -0.000032  0.611898	T   T   T
 0.500256  0.500852  0.611690	T   T   T
 0.332892  0.166667  0.499382	T   T   T
 0.332961  0.666758  0.499322	T   T   T
 0.832853  0.166645  0.499359	T   T   T
 0.833143  0.666814  0.499275	T   T   T
 0.166286  0.333349  0.470498	T   T   T
 0.166389  0.833404  0.470348	T   T   T
 0.666320  0.333236  0.470380	T   T   T
 0.666322  0.833539  0.470406	T   T   T
-0.000599 -0.000126  0.358446	T   T   T
-0.000619  0.499775  0.358464	T   T   T
 0.499669 -0.000026  0.358425	T   T   T
 0.499659  0.499953  0.358503	T   T   T
 0.332983  0.167187  0.583335	T   T   T
 0.333299  0.666645  0.583146	T   T   T
 0.832243  0.166548  0.583129	T   T   T
 0.832711  0.666603  0.583225	T   T   T
-0.000327 -0.000102  0.528314	T   T   T
-0.000396  0.500241  0.528214	T   T   T
 0.499090 -0.000000  0.528227	T   T   T
 0.500026  0.500151  0.528187	T   T   T
 0.332793  0.166579  0.415440	T   T   T
 0.332857  0.666537  0.415419	T   T   T
 0.833086  0.166665  0.415457	T   T   T
 0.833080  0.666733  0.415448	T   T   T
 0.165061  0.333557  0.640035	T   T   T
 0.166231  0.832828  0.639917	T   T   T
 0.666062  0.333505  0.640321	T   T   T
 0.666690  0.833784  0.640089	T   T   T
 0.328017  0.279020  0.734012	T   T   T
 0.440163  0.446325  0.738594	T   T   T
