C1 O25 Ce12
1
 7.707464  0.000000  0.000000
-3.853732  6.674860  0.000000
 0.000000  0.000000 28.319031
Ce O C O
12 24 1 1
Selective Dynamics
Direct
 0.166325  0.332992  0.386136	T   T   T
 0.166255  0.832998  0.385996	T   T   T
 0.666090  0.332973  0.386142	T   T   T
 0.666126  0.832828  0.386134	T   T   T
-0.000788 -0.000573  0.611264	T   T   T
-0.000854  0.499279  0.611190	T   T   T
 0.499182 -0.000650  0.611113	T   T   T
 0.499206  0.499344  0.611287	T   T   T
 0.332475  0.165962  0.498674	T   T   T
 0.332480  0.666073  0.498667	T   T   T
 0.832501  0.165958  0.498671	T   T   T
 0.832797  0.666170  0.498685	T   T   T
 0.165731  0.332719  0.469820	T   T   T
 0.165951  0.832658  0.469529	T   T   T
 0.666122  0.332651  0.469792	T   T   T
 0.666040  0.833000  0.469853	T   T   T
-0.000052 -0.000426  0.357796	T   T   T
-0.000140  0.500051  0.357839	T   T   T
 0.499072 -0.000527  0.357773	T   T   T
 0.499493  0.499551  0.357728	T   T   T
 0.332236  0.165541  0.582691	T   T   T
 0.332867  0.666567  0.582494	T   T   T
 0.831978  0.165135  0.582374	T   T   T
 0.832878  0.666681  0.582584	T   T   T
-0.000131 -0.000834  0.527581	T   T   T
-0.000519  0.499925  0.527598	T   T   T
 0.498198 -0.000897  0.527526	T   T   T
 0.499257  0.499198  0.527662	T   T   T
 0.333147  0.166878  0.414858	T   T   T
 0.333293  0.666008  0.414822	T   T   T
 0.832705  0.166084  0.414634	T   T   T
 0.832110  0.665985  0.414782	T   T   T
 0.165095  0.332948  0.639181	T   T   T
 0.165469  0.831788  0.639879	T   T   T
 0.666780  0.332972  0.639214	T   T   T
 0.665750  0.832652  0.639603	T   T   T
 0.315065  0.046663  0.736735	T   T   T
 0.290932  0.913698  0.759482	T   T   T
