C1 O25 Ce12
1
 7.707464  0.000000  0.000000
-3.853732  6.674860  0.000000
 0.000000  0.000000 28.319031
Ce O C O
12 24 1 1
Selective Dynamics
Direct
 0.175379  0.338360  0.386830	T   T   T
 0.175379  0.838469  0.386855	T   T   T
 0.675423  0.338454  0.387021	T   T   T
 0.675470  0.838458  0.386830	T   T   T
 0.009461  0.005442  0.613229	T   T   T
 0.010836  0.506189  0.611975	T   T   T
 0.510505  0.005818  0.611871	T   T   T
 0.510332  0.506074  0.611920	T   T   T
 0.342278  0.171834  0.499589	T   T   T
 0.342889  0.672199  0.499399	T   T   T
 0.843195  0.171956  0.499489	T   T   T
 0.843044  0.672574  0.499543	T   T   T
 0.176176  0.339073  0.470529	T   T   T
 0.176411  0.838662  0.470502	T   T   T
 0.675734  0.338511  0.470421	T   T   T
 0.675348  0.838483  0.470493	T   T   T
 0.008646  0.004764  0.358421	T   T   T
 0.008537  0.505319  0.358574	T   T   T
 0.508593  0.005058  0.358491	T   T   T
 0.508761  0.505152  0.358601	T   T   T
 0.341042  0.171329  0.583814	T   T   T
 0.343441  0.672448  0.582918	T   T   T
 0.844846  0.172245  0.583829	T   T   T
 0.845003  0.673980  0.583946	T   T   T
 0.009231  0.005341  0.528176	T   T   T
 0.008853  0.505055  0.528376	T   T   T
 0.510395  0.006684  0.528510	T   T   T
 0.510258  0.505063  0.528464	T   T   T
 0.341599  0.171574  0.415662	T   T   T
 0.342026  0.671650  0.415472	T   T   T
 0.842464  0.171651  0.415653	T   T   T
 0.842577  0.672263  0.415605	T   T   T
 0.179575  0.344068  0.640791	T   T   T
 0.180008  0.837520  0.640849	T   T   T
 0.676545  0.338869  0.640444	T   T   T
 0.674341  0.837952  0.640400	T   T   T
 0.084415  0.046577  0.714250	T   T   T
 0.163599  0.088216  0.750048	T   T   T
