C1 O25 Ce12
1
 7.707464  0.000000  0.000000
-3.853732  6.674860  0.000000
 0.000000  0.000000 28.319031
Ce O C O
12 24 1 1
Selective Dynamics
Direct
 0.163758  0.330706  0.387066	T   T   T
 0.163738  0.830736  0.387246	T   T   T
 0.663643  0.330687  0.387100	T   T   T
 0.663659  0.830660  0.387077	T   T   T
-0.004101 -0.004037  0.611889	T   T   T
-0.004009  0.495818  0.611996	T   T   T
 0.496650 -0.004011  0.611926	T   T   T
 0.496983  0.497077  0.613195	T   T   T
 0.330438  0.164166  0.499750	T   T   T
 0.330194  0.663168  0.499670	T   T   T
 0.830116  0.163480  0.499490	T   T   T
 0.829722  0.663227  0.499649	T   T   T
 0.162800  0.329876  0.470724	T   T   T
 0.163585  0.830287  0.470669	T   T   T
 0.663803  0.329822  0.470799	T   T   T
 0.663901  0.831017  0.470683	T   T   T
-0.002723 -0.002758  0.358818	T   T   T
-0.002759  0.497702  0.358902	T   T   T
 0.496700 -0.002899  0.358913	T   T   T
 0.496891  0.497180  0.358636	T   T   T
 0.330856  0.165541  0.583893	T   T   T
 0.329946  0.661467  0.583906	T   T   T
 0.829927  0.163022  0.582827	T   T   T
 0.828138  0.661839  0.583811	T   T   T
-0.002806 -0.003754  0.528590	T   T   T
-0.003001  0.497438  0.528555	T   T   T
 0.495588 -0.004001  0.528676	T   T   T
 0.496790  0.497147  0.528312	T   T   T
 0.330594  0.164321  0.415891	T   T   T
 0.330482  0.663649  0.415818	T   T   T
 0.830281  0.163949  0.415640	T   T   T
 0.829889  0.663577  0.415827	T   T   T
 0.157673  0.326414  0.640861	T   T   T
 0.163382  0.829891  0.640372	T   T   T
 0.665196  0.326645  0.640565	T   T   T
 0.664501  0.831958  0.640378	T   T   T
 0.435311  0.407003  0.712640	T   T   T
 0.376500  0.318678  0.747030	T   T   T
