C1 O25 Ce12
1
 7.707464  0.000000  0.000000
-3.853732  6.674860  0.000000
 0.000000  0.000000 28.319031
Ce O C O
12 24 1 1
Selective Dynamics
Direct
 0.166861  0.333603  0.386086	T   T   T
 0.166789  0.833408  0.386198	T   T   T
 0.666649  0.333431  0.386106	T   T   T
 0.666576  0.833327  0.386135	T   T   T
 0.000601 -0.000959  0.611228	T   T   T
 0.001173  0.499187  0.611032	T   T   T
 0.500629 -0.001587  0.610966	T   T   T
 0.500290  0.499257  0.611648	T   T   T
 0.333687  0.166561  0.498729	T   T   T
 0.333638  0.666153  0.498600	T   T   T
 0.833661  0.166244  0.498612	T   T   T
 0.833399  0.666192  0.498716	T   T   T
 0.166890  0.333352  0.469800	T   T   T
 0.166950  0.832826  0.469745	T   T   T
 0.666990  0.333064  0.469792	T   T   T
 0.666651  0.833052  0.469802	T   T   T
 0.000090  0.000110  0.358139	T   T   T
 0.000354  0.500391  0.357782	T   T   T
 0.499712 -0.000150  0.357786	T   T   T
 0.499825  0.500220  0.357672	T   T   T
 0.333375  0.165990  0.582765	T   T   T
 0.334224  0.665680  0.582371	T   T   T
 0.834222  0.164756  0.582352	T   T   T
 0.833870  0.666720  0.582704	T   T   T
 0.000782 -0.000621  0.527506	T   T   T
 0.000072  0.499501  0.527693	T   T   T
 0.500128 -0.000310  0.527630	T   T   T
 0.500534  0.499293  0.527760	T   T   T
 0.333875  0.167143  0.414862	T   T   T
 0.333570  0.666561  0.414777	T   T   T
 0.833255  0.166858  0.414783	T   T   T
 0.832936  0.666209  0.414848	T   T   T
 0.166630  0.333067  0.639368	T   T   T
 0.167849  0.832205  0.639537	T   T   T
 0.668635  0.331648  0.639187	T   T   T
 0.666355  0.832205  0.639564	T   T   T
 0.540780  0.331822  0.737771	T   T   T
 0.595658  0.239147  0.757740	T   T   T
