C1 O25 Ce12
1
 7.707464  0.000000  0.000000
-3.853732  6.674860  0.000000
 0.000000  0.000000 28.319031
Ce O C O
12 24 1 1
Selective Dynamics
Direct
 0.165855  0.332938  0.386361	T   T   T
 0.165986  0.833081  0.386386	T   T   T
 0.665821  0.332897  0.386416	T   T   T
 0.665848  0.833047  0.386386	T   T   T
-0.000597  0.000644  0.611415	T   T   T
-0.000410  0.501053  0.611115	T   T   T
 0.499448  0.000900  0.611192	T   T   T
 0.499388  0.501200  0.611024	T   T   T
 0.332388  0.166709  0.498830	T   T   T
 0.332546  0.666938  0.498754	T   T   T
 0.832680  0.166759  0.498843	T   T   T
 0.832527  0.666792  0.498820	T   T   T
 0.165992  0.333548  0.469890	T   T   T
 0.166228  0.833309  0.469945	T   T   T
 0.665801  0.333255  0.469866	T   T   T
 0.665459  0.833270  0.469937	T   T   T
-0.000631 -0.000198  0.358161	T   T   T
-0.000777  0.499477  0.358217	T   T   T
 0.499206 -0.000307  0.358079	T   T   T
 0.498997  0.499405  0.358195	T   T   T
 0.331446  0.167202  0.582590	T   T   T
 0.332480  0.667351  0.582288	T   T   T
 0.834009  0.167493  0.582661	T   T   T
 0.832817  0.667739  0.582645	T   T   T
-0.000936 -0.000087  0.527621	T   T   T
-0.001170  0.500152  0.527667	T   T   T
 0.499709  0.001084  0.527825	T   T   T
 0.499289  0.500142  0.527686	T   T   T
 0.332468  0.166175  0.415101	T   T   T
 0.332646  0.666605  0.415015	T   T   T
 0.832359  0.166140  0.415052	T   T   T
 0.832647  0.666638  0.415075	T   T   T
 0.166923  0.336017  0.639615	T   T   T
 0.166501  0.833951  0.639292	T   T   T
 0.665535  0.333645  0.639180	T   T   T
 0.665388  0.834121  0.639220	T   T   T
 0.223258  0.276227  0.741659	T   T   T
 0.332866  0.441335  0.749765	T   T   T
