C1 O25 Ce12
1
 7.707464  0.000000  0.000000
-3.853732  6.674860  0.000000
 0.000000  0.000000 28.319031
Ce O C O
12 24 1 1
Selective Dynamics
Direct
 0.170122  0.339397  0.387177	T   T   T
 0.170226  0.839747  0.387059	T   T   T
 0.670174  0.339537  0.387205	T   T   T
 0.670335  0.839747  0.387053	T   T   T
 0.003483  0.006204  0.613164	T   T   T
 0.004455  0.508184  0.611938	T   T   T
 0.504210  0.007319  0.611946	T   T   T
 0.504928  0.508277  0.611920	T   T   T
 0.336778  0.173467  0.499768	T   T   T
 0.337311  0.673674  0.499513	T   T   T
 0.837581  0.173488  0.499754	T   T   T
 0.837565  0.674163  0.499551	T   T   T
 0.170980  0.341023  0.470753	T   T   T
 0.170873  0.839701  0.470699	T   T   T
 0.670607  0.340317  0.470492	T   T   T
 0.669711  0.839698  0.470702	T   T   T
 0.003674  0.006472  0.358637	T   T   T
 0.003030  0.505906  0.358943	T   T   T
 0.503854  0.006860  0.358754	T   T   T
 0.503746  0.505887  0.358943	T   T   T
 0.335791  0.173161  0.583961	T   T   T
 0.338089  0.674801  0.582859	T   T   T
 0.838278  0.173210  0.583956	T   T   T
 0.838544  0.675929  0.583630	T   T   T
 0.004078  0.007325  0.528195	T   T   T
 0.002984  0.506508  0.528544	T   T   T
 0.504720  0.008584  0.528553	T   T   T
 0.504560  0.506482  0.528546	T   T   T
 0.336174  0.172541  0.415905	T   T   T
 0.337033  0.673226  0.415553	T   T   T
 0.837251  0.172558  0.415893	T   T   T
 0.837443  0.674028  0.415736	T   T   T
 0.173961  0.346943  0.640759	T   T   T
 0.172690  0.838760  0.640510	T   T   T
 0.671335  0.341837  0.640462	T   T   T
 0.667862  0.839034  0.640534	T   T   T
 0.056610  0.086973  0.712107	T   T   T
 0.106721  0.163457  0.748116	T   T   T
