C1 O25 Ce12
1
 7.707464  0.000000  0.000000
-3.853732  6.674860  0.000000
 0.000000  0.000000 28.319031
Ce O C O
12 24 1 1
Selective Dynamics
Direct
 0.167197  0.333229  0.385996	T   T   T
 0.167161  0.833313  0.386156	T   T   T
 0.667018  0.333226  0.386083	T   T   T
 0.667138  0.833255  0.386103	T   T   T
 0.000380 -0.000338  0.611099	T   T   T
 0.000593  0.499073  0.611171	T   T   T
 0.500615 -0.000494  0.611097	T   T   T
 0.500805  0.499562  0.611383	T   T   T
 0.334100  0.166631  0.498605	T   T   T
 0.334093  0.666252  0.498588	T   T   T
 0.834042  0.166461  0.498506	T   T   T
 0.834035  0.666306  0.498634	T   T   T
 0.167334  0.333458  0.469595	T   T   T
 0.167179  0.832662  0.469729	T   T   T
 0.667671  0.333334  0.469635	T   T   T
 0.667234  0.833069  0.469846	T   T   T
 0.000700  0.000147  0.357780	T   T   T
 0.000325  0.499888  0.357891	T   T   T
 0.500328  0.000204  0.357812	T   T   T
 0.500251  0.499544  0.357730	T   T   T
 0.333611  0.167115  0.582763	T   T   T
 0.334564  0.665543  0.582459	T   T   T
 0.833913  0.165641  0.582372	T   T   T
 0.833679  0.666371  0.582598	T   T   T
 0.001204 -0.000038  0.527547	T   T   T
 0.000647  0.499510  0.527639	T   T   T
 0.500261  0.000073  0.527623	T   T   T
 0.500811  0.499204  0.527587	T   T   T
 0.333832  0.166452  0.414868	T   T   T
 0.334392  0.666913  0.414703	T   T   T
 0.833531  0.166068  0.414751	T   T   T
 0.833617  0.666834  0.414767	T   T   T
 0.165387  0.332707  0.639794	T   T   T
 0.168044  0.832801  0.639311	T   T   T
 0.667742  0.332314  0.639279	T   T   T
 0.667303  0.833033  0.639574	T   T   T
 0.271536  0.317872  0.759367	T   T   T
 0.411451  0.359473  0.737348	T   T   T
