C1 O25 Ce12
1
 7.707464  0.000000  0.000000
-3.853732  6.674860  0.000000
 0.000000  0.000000 28.319031
Ce O C O
12 24 1 1
Selective Dynamics
Direct
 0.168772  0.333467  0.386188	T   T   T
 0.168753  0.833276  0.386143	T   T   T
 0.668834  0.333426  0.386188	T   T   T
 0.668731  0.833350  0.386166	T   T   T
 0.001695 -0.000291  0.611033	T   T   T
 0.001584  0.499845  0.611047	T   T   T
 0.501736 -0.000190  0.611011	T   T   T
 0.502115  0.500278  0.610965	T   T   T
 0.335205  0.166674  0.498596	T   T   T
 0.335053  0.666648  0.498597	T   T   T
 0.835193  0.166560  0.498607	T   T   T
 0.835242  0.666714  0.498554	T   T   T
 0.168573  0.333241  0.469711	T   T   T
 0.168387  0.833294  0.469694	T   T   T
 0.668568  0.333490  0.469807	T   T   T
 0.668789  0.833322  0.469674	T   T   T
 0.002030 -0.000022  0.358011	T   T   T
 0.002407  0.500179  0.357824	T   T   T
 0.502151 -0.000253  0.357942	T   T   T
 0.502162  0.500349  0.357900	T   T   T
 0.335175  0.166499  0.582413	T   T   T
 0.334949  0.666911  0.582453	T   T   T
 0.834993  0.165901  0.582372	T   T   T
 0.835307  0.667045  0.582315	T   T   T
 0.002002  0.000025  0.527504	T   T   T
 0.001751  0.499790  0.527562	T   T   T
 0.501780 -0.000223  0.527459	T   T   T
 0.501743  0.500259  0.527593	T   T   T
 0.335608  0.166869  0.414799	T   T   T
 0.335234  0.666537  0.414883	T   T   T
 0.835454  0.167030  0.414852	T   T   T
 0.835366  0.666383  0.414836	T   T   T
 0.168561  0.333317  0.639274	T   T   T
 0.168036  0.833480  0.639499	T   T   T
 0.669326  0.333529  0.638880	T   T   T
 0.667992  0.832532  0.639361	T   T   T
 0.292407  0.305916  0.755203	T   T   T
 0.453166  0.361508  0.742874	T   T   T
