C1 O25 Ce12
1
 7.707464  0.000000  0.000000
-3.853732  6.674860  0.000000
 0.000000  0.000000 28.319031
Ce O C O
12 24 1 1
Selective Dynamics
Direct
 0.166855  0.334398  0.386070	T   T   T
 0.166997  0.834598  0.386179	T   T   T
 0.666770  0.334335  0.386143	T   T   T
 0.666858  0.834583  0.386187	T   T   T
 0.000710  0.002838  0.610927	T   T   T
 0.000689  0.502535  0.611048	T   T   T
 0.501008  0.002621  0.611271	T   T   T
 0.500734  0.502454  0.610995	T   T   T
 0.333959  0.168603  0.498667	T   T   T
 0.333804  0.668587  0.498685	T   T   T
 0.833816  0.168704  0.498676	T   T   T
 0.833766  0.668670  0.498666	T   T   T
 0.167244  0.335419  0.469487	T   T   T
 0.167164  0.835029  0.469796	T   T   T
 0.667053  0.335209  0.469713	T   T   T
 0.666937  0.834878  0.469733	T   T   T
 0.000547  0.001559  0.357866	T   T   T
 0.000166  0.500649  0.357941	T   T   T
 0.500222  0.001223  0.357831	T   T   T
 0.499715  0.500481  0.357885	T   T   T
 0.333791  0.169029  0.582434	T   T   T
 0.333552  0.668573  0.582445	T   T   T
 0.834968  0.169370  0.582411	T   T   T
 0.834292  0.669926  0.582345	T   T   T
 0.000752  0.002455  0.527567	T   T   T
 0.000415  0.502149  0.527612	T   T   T
 0.500765  0.002086  0.527818	T   T   T
 0.500398  0.501942  0.527657	T   T   T
 0.333669  0.167412  0.414868	T   T   T
 0.334052  0.668734  0.414793	T   T   T
 0.832898  0.167334  0.414872	T   T   T
 0.833689  0.668235  0.414803	T   T   T
 0.167899  0.336025  0.639457	T   T   T
 0.167635  0.836295  0.639461	T   T   T
 0.668665  0.336343  0.638764	T   T   T
 0.667007  0.836241  0.639231	T   T   T
 0.321993  0.200589  0.740006	T   T   T
 0.177044  0.174331  0.757480	T   T   T
