C1 O25 Ce12
1
 7.707464  0.000000  0.000000
-3.853732  6.674860  0.000000
 0.000000  0.000000 28.319031
Ce O C O
12 24 1 1
Selective Dynamics
Direct
 0.166884  0.334600  0.386398	T   T   T
 0.167036  0.834846  0.386398	T   T   T
 0.666815  0.334525  0.386352	T   T   T
 0.666906  0.834821  0.386421	T   T   T
-0.000128  0.002757  0.611193	T   T   T
-0.000187  0.502693  0.611383	T   T   T
 0.500200  0.002759  0.611688	T   T   T
 0.499900  0.502738  0.611292	T   T   T
 0.333729  0.168823  0.498956	T   T   T
 0.333558  0.668940  0.498971	T   T   T
 0.833502  0.168825  0.498974	T   T   T
 0.833447  0.668742  0.498888	T   T   T
 0.166967  0.335278  0.470004	T   T   T
 0.166782  0.835382  0.470170	T   T   T
 0.666831  0.335476  0.470136	T   T   T
 0.667034  0.835199  0.470108	T   T   T
 0.000538  0.001644  0.358140	T   T   T
 0.000152  0.500888  0.358204	T   T   T
 0.500341  0.001509  0.358057	T   T   T
 0.499907  0.500787  0.358162	T   T   T
 0.334233  0.169366  0.582647	T   T   T
 0.333077  0.669886  0.582891	T   T   T
 0.833095  0.169982  0.582773	T   T   T
 0.833179  0.668603  0.582533	T   T   T
 0.000213  0.002527  0.527768	T   T   T
 0.000416  0.502253  0.527670	T   T   T
 0.500470  0.002136  0.527753	T   T   T
 0.499755  0.502519  0.527721	T   T   T
 0.333629  0.167752  0.415065	T   T   T
 0.333859  0.668709  0.415023	T   T   T
 0.833123  0.167727  0.415116	T   T   T
 0.833680  0.668369  0.414959	T   T   T
 0.166912  0.335804  0.639382	T   T   T
 0.165238  0.836447  0.639625	T   T   T
 0.666419  0.336476  0.639854	T   T   T
 0.667271  0.836237  0.639317	T   T   T
 0.349368  0.082455  0.739140	T   T   T
 0.275456  0.174856  0.748657	T   T   T
