C1 O25 Ce12
1
 7.707464  0.000000  0.000000
-3.853732  6.674860  0.000000
 0.000000  0.000000 28.319031
Ce O C O
12 24 1 1
Selective Dynamics
Direct
 0.160804  0.328928  0.388169	T   T   T
 0.160821  0.828932  0.388253	T   T   T
 0.660674  0.328862  0.388144	T   T   T
 0.660675  0.828880  0.388141	T   T   T
-0.007185 -0.005008  0.612875	T   T   T
-0.007090  0.495132  0.612882	T   T   T
 0.493540 -0.004619  0.612913	T   T   T
 0.494315  0.496098  0.614073	T   T   T
 0.327370  0.162738  0.500727	T   T   T
 0.327339  0.662000  0.500707	T   T   T
 0.827112  0.162159  0.500526	T   T   T
 0.826753  0.662010  0.500607	T   T   T
 0.160038  0.328613  0.471807	T   T   T
 0.160761  0.828941  0.471652	T   T   T
 0.660790  0.328429  0.471738	T   T   T
 0.660783  0.829611  0.471736	T   T   T
-0.005776 -0.004465  0.359944	T   T   T
-0.005712  0.495692  0.359940	T   T   T
 0.493933 -0.004566  0.359875	T   T   T
 0.494096  0.495575  0.359833	T   T   T
 0.327229  0.164184  0.584807	T   T   T
 0.327054  0.660727  0.584778	T   T   T
 0.827012  0.161821  0.583846	T   T   T
 0.825577  0.661515  0.584771	T   T   T
-0.005944 -0.005251  0.529515	T   T   T
-0.006081  0.496407  0.529548	T   T   T
 0.492633 -0.004931  0.529678	T   T   T
 0.494162  0.495894  0.529254	T   T   T
 0.327651  0.162616  0.416875	T   T   T
 0.327631  0.662086  0.416886	T   T   T
 0.827369  0.162240  0.416692	T   T   T
 0.827023  0.662044  0.416865	T   T   T
 0.154422  0.325975  0.641861	T   T   T
 0.160402  0.829164  0.641403	T   T   T
 0.662172  0.326522  0.641308	T   T   T
 0.661281  0.831520  0.641428	T   T   T
 0.424050  0.440258  0.713553	T   T   T
 0.357875  0.389935  0.750502	T   T   T
