C1 O25 Ce12
1
 7.707464  0.000000  0.000000
-3.853732  6.674860  0.000000
 0.000000  0.000000 28.319031
Ce O C O
12 24 1 1
Selective Dynamics
Direct
 0.166414  0.332817  0.387051	T   T   T
 0.166416  0.833002  0.387029	T   T   T
 0.666181  0.332792  0.387049	T   T   T
 0.666310  0.832828  0.387061	T   T   T
-0.000270 -0.000735  0.612061	T   T   T
-0.000223  0.499186  0.611911	T   T   T
 0.499753 -0.000667  0.612101	T   T   T
 0.500018  0.499678  0.612199	T   T   T
 0.333064  0.166210  0.499637	T   T   T
 0.332977  0.666012  0.499562	T   T   T
 0.832922  0.165852  0.499568	T   T   T
 0.832999  0.666085  0.499535	T   T   T
 0.166298  0.333041  0.470632	T   T   T
 0.166048  0.832166  0.470558	T   T   T
 0.666632  0.333009  0.470618	T   T   T
 0.666239  0.832579  0.470726	T   T   T
 0.000130 -0.000204  0.358728	T   T   T
-0.000334  0.499523  0.358850	T   T   T
 0.499409 -0.000204  0.358710	T   T   T
 0.499438  0.499120  0.358726	T   T   T
 0.333172  0.166002  0.583757	T   T   T
 0.334273  0.666942  0.583319	T   T   T
 0.832348  0.163962  0.583276	T   T   T
 0.832956  0.667539  0.583212	T   T   T
 0.000670 -0.000096  0.528396	T   T   T
-0.000501  0.498958  0.528586	T   T   T
 0.499195 -0.000286  0.528490	T   T   T
 0.499386  0.498874  0.528585	T   T   T
 0.333008  0.166227  0.415819	T   T   T
 0.333530  0.666365  0.415677	T   T   T
 0.832720  0.165623  0.415724	T   T   T
 0.832664  0.666355  0.415659	T   T   T
 0.165867  0.333312  0.640225	T   T   T
 0.165532  0.831117  0.640398	T   T   T
 0.669901  0.334639  0.639755	T   T   T
 0.665937  0.832355  0.640834	T   T   T
 0.352429  0.145739  0.732715	T   T   T
 0.323159  0.096501  0.771376	T   T   T
