C1 O25 Ce12
1
 7.707464  0.000000  0.000000
-3.853732  6.674860  0.000000
 0.000000  0.000000 28.319031
Ce O C O
12 24 1 1
Selective Dynamics
Direct
 0.165534  0.332885  0.386317	T   T   T
 0.165596  0.832980  0.386411	T   T   T
 0.665655  0.332919  0.386314	T   T   T
 0.665691  0.833048  0.386400	T   T   T
-0.002052 -0.000487  0.611150	T   T   T
-0.002902  0.498834  0.610899	T   T   T
 0.497732 -0.000466  0.611047	T   T   T
 0.497440  0.499214  0.611130	T   T   T
 0.331624  0.166240  0.498751	T   T   T
 0.331438  0.666047  0.498780	T   T   T
 0.831577  0.165923  0.498715	T   T   T
 0.831529  0.666094  0.498796	T   T   T
 0.164843  0.332835  0.469872	T   T   T
 0.165214  0.832604  0.469921	T   T   T
 0.665081  0.332548  0.469713	T   T   T
 0.665030  0.833128  0.470051	T   T   T
-0.001000 -0.000328  0.358126	T   T   T
-0.001246  0.499456  0.358077	T   T   T
 0.499341 -0.000051  0.358187	T   T   T
 0.499271  0.499668  0.358182	T   T   T
 0.331134  0.167245  0.582443	T   T   T
 0.330444  0.664938  0.582425	T   T   T
 0.831700  0.166129  0.582262	T   T   T
 0.830575  0.665472  0.582517	T   T   T
-0.001448 -0.000822  0.527755	T   T   T
-0.002366  0.499200  0.527635	T   T   T
 0.497754 -0.000488  0.527830	T   T   T
 0.498156  0.499534  0.527602	T   T   T
 0.331759  0.165957  0.415041	T   T   T
 0.332222  0.666356  0.415030	T   T   T
 0.832279  0.166000  0.414992	T   T   T
 0.832360  0.666681  0.415075	T   T   T
 0.163280  0.332135  0.639598	T   T   T
 0.164676  0.833400  0.639013	T   T   T
 0.663401  0.331381  0.638838	T   T   T
 0.664408  0.833205  0.639283	T   T   T
 0.025116  0.394163  0.753763	T   T   T
 0.890987  0.404204  0.739851	T   T   T
