C1 O25 Ce12
1
 7.707464  0.000000  0.000000
-3.853732  6.674860  0.000000
 0.000000  0.000000 28.319031
Ce O C O
12 24 1 1
Selective Dynamics
Direct
 0.166823  0.332592  0.386514	T   T   T
 0.166903  0.832576  0.386415	T   T   T
 0.666615  0.332381  0.386394	T   T   T
 0.666534  0.832560  0.386416	T   T   T
-0.000808 -0.001772  0.611166	T   T   T
-0.001056  0.498510  0.611152	T   T   T
 0.499534 -0.001670  0.611222	T   T   T
 0.499344  0.498425  0.611464	T   T   T
 0.333035  0.165518  0.498887	T   T   T
 0.333019  0.665384  0.498900	T   T   T
 0.833111  0.165513  0.498832	T   T   T
 0.832889  0.665559  0.498830	T   T   T
 0.166284  0.332472  0.470131	T   T   T
 0.166827  0.832324  0.469921	T   T   T
 0.666420  0.331890  0.469929	T   T   T
 0.666226  0.832503  0.469899	T   T   T
 0.000387 -0.000739  0.358260	T   T   T
 0.000202  0.499276  0.358281	T   T   T
 0.499983 -0.000810  0.358043	T   T   T
 0.499987  0.498981  0.358209	T   T   T
 0.332817  0.165249  0.582682	T   T   T
 0.332874  0.664912  0.582643	T   T   T
 0.832715  0.165046  0.582450	T   T   T
 0.832534  0.665209  0.582726	T   T   T
-0.000501 -0.001523  0.527580	T   T   T
-0.000419  0.499043  0.527688	T   T   T
 0.499569 -0.001552  0.527719	T   T   T
 0.499745  0.498912  0.527685	T   T   T
 0.333225  0.166035  0.415076	T   T   T
 0.333427  0.665575  0.415138	T   T   T
 0.833531  0.165753  0.415065	T   T   T
 0.833065  0.665877  0.415072	T   T   T
 0.164937  0.331210  0.639459	T   T   T
 0.166086  0.831528  0.639469	T   T   T
 0.666174  0.331575  0.639315	T   T   T
 0.666000  0.832195  0.639469	T   T   T
 0.231685  0.420906  0.741074	T   T   T
 0.076556  0.400357  0.748615	T   T   T
