C1 O25 Ce12
1
 7.707464  0.000000  0.000000
-3.853732  6.674860  0.000000
 0.000000  0.000000 28.319031
Ce O C O
12 24 1 1
Selective Dynamics
Direct
 0.166769  0.333099  0.386257	T   T   T
 0.166787  0.833243  0.386277	T   T   T
 0.666647  0.333081  0.386213	T   T   T
 0.666714  0.833191  0.386231	T   T   T
-0.001443 -0.001367  0.611042	T   T   T
-0.001416  0.498819  0.611073	T   T   T
 0.499334 -0.001044  0.611349	T   T   T
 0.499038  0.498738  0.611927	T   T   T
 0.333257  0.166374  0.498843	T   T   T
 0.333276  0.666170  0.498830	T   T   T
 0.832739  0.166026  0.498713	T   T   T
 0.832680  0.665965  0.498800	T   T   T
 0.166314  0.332875  0.469787	T   T   T
 0.166355  0.832807  0.469852	T   T   T
 0.666517  0.332899  0.469861	T   T   T
 0.666436  0.832904  0.469881	T   T   T
 0.000491  0.000306  0.357982	T   T   T
 0.000365  0.499634  0.358037	T   T   T
 0.500053 -0.000156  0.357864	T   T   T
 0.499635  0.499465  0.357930	T   T   T
 0.332648  0.166514  0.582800	T   T   T
 0.332735  0.665250  0.582789	T   T   T
 0.832440  0.165587  0.582285	T   T   T
 0.831884  0.665516  0.582712	T   T   T
-0.000242 -0.000842  0.527623	T   T   T
-0.000277  0.499860  0.527679	T   T   T
 0.498963 -0.000913  0.527663	T   T   T
 0.499428  0.499299  0.527791	T   T   T
 0.333703  0.166219  0.414941	T   T   T
 0.333829  0.666964  0.414934	T   T   T
 0.832639  0.165935  0.414904	T   T   T
 0.833111  0.666382  0.414909	T   T   T
 0.163392  0.331089  0.639834	T   T   T
 0.165893  0.832599  0.639481	T   T   T
 0.666493  0.331624  0.639376	T   T   T
 0.665998  0.832992  0.639452	T   T   T
 0.334134  0.343728  0.734556	T   T   T
 0.201180  0.234725  0.757314	T   T   T
