C1 O25 Ce12
1
 7.707464  0.000000  0.000000
-3.853732  6.674860  0.000000
 0.000000  0.000000 28.319031
Ce O C O
12 24 1 1
Selective Dynamics
Direct
 0.166448  0.333526  0.387041	T   T   T
 0.166476  0.833550  0.387016	T   T   T
 0.666457  0.333516  0.387021	T   T   T
 0.666467  0.833541  0.386982	T   T   T
-0.000396  0.000348  0.611996	T   T   T
-0.000314  0.500359  0.611925	T   T   T
 0.499665  0.000439  0.611991	T   T   T
 0.499779  0.500514  0.612036	T   T   T
 0.333067  0.167044  0.499528	T   T   T
 0.333090  0.666976  0.499518	T   T   T
 0.833045  0.166919  0.499512	T   T   T
 0.833092  0.666960  0.499516	T   T   T
 0.166316  0.333734  0.470622	T   T   T
 0.166306  0.833355  0.470554	T   T   T
 0.666658  0.333722  0.470578	T   T   T
 0.666392  0.833643  0.470680	T   T   T
-0.000225  0.000205  0.358739	T   T   T
-0.000219  0.500191  0.358770	T   T   T
 0.499779  0.000220  0.358716	T   T   T
 0.499791  0.500213  0.358749	T   T   T
 0.333049  0.167102  0.583508	T   T   T
 0.333900  0.667568  0.583305	T   T   T
 0.832543  0.166028  0.583275	T   T   T
 0.832740  0.667562  0.583281	T   T   T
-0.000026  0.000397  0.528380	T   T   T
-0.000279  0.500294  0.528429	T   T   T
 0.499523  0.000469  0.528389	T   T   T
 0.499691  0.500182  0.528412	T   T   T
 0.333116  0.166921  0.415656	T   T   T
 0.333165  0.666843  0.415652	T   T   T
 0.833142  0.166846  0.415667	T   T   T
 0.833074  0.666890  0.415647	T   T   T
 0.165643  0.334293  0.640111	T   T   T
 0.165991  0.833090  0.640247	T   T   T
 0.667612  0.334323  0.640090	T   T   T
 0.666335  0.833608  0.640570	T   T   T
 0.330501  0.223285  0.772917	T   T   T
 0.345270  0.209771  0.733086	T   T   T
