C1 O25 Ce12
1
 7.707464  0.000000  0.000000
-3.853732  6.674860  0.000000
 0.000000  0.000000 28.319031
Ce O C O
12 24 1 1
Selective Dynamics
Direct
 0.166676  0.333472  0.386276	T   T   T
 0.166660  0.833373  0.386256	T   T   T
 0.666787  0.333507  0.386257	T   T   T
 0.666713  0.833428  0.386334	T   T   T
 0.000424 -0.001270  0.611096	T   T   T
 0.000131  0.499346  0.611801	T   T   T
 0.500334 -0.000609  0.611292	T   T   T
 0.500725  0.499369  0.611182	T   T   T
 0.333516  0.166429  0.498724	T   T   T
 0.333301  0.666370  0.498855	T   T   T
 0.833665  0.166728  0.498839	T   T   T
 0.833558  0.666335  0.498794	T   T   T
 0.166875  0.333226  0.469922	T   T   T
 0.166926  0.833322  0.469933	T   T   T
 0.666681  0.333189  0.469880	T   T   T
 0.666703  0.833158  0.469864	T   T   T
-0.000029  0.000180  0.357995	T   T   T
 0.000030  0.500079  0.357911	T   T   T
 0.500095  0.000117  0.358112	T   T   T
 0.500034  0.500190  0.357995	T   T   T
 0.333479  0.165333  0.582426	T   T   T
 0.333079  0.666055  0.582839	T   T   T
 0.834199  0.166786  0.582892	T   T   T
 0.834172  0.666185  0.582640	T   T   T
-0.000110 -0.000264  0.527677	T   T   T
 0.000220  0.499523  0.527842	T   T   T
 0.500683 -0.000401  0.527757	T   T   T
 0.500129  0.499825  0.527740	T   T   T
 0.333249  0.166805  0.414931	T   T   T
 0.333053  0.666436  0.414964	T   T   T
 0.833722  0.167034  0.415000	T   T   T
 0.833529  0.666662  0.414995	T   T   T
 0.169045  0.332142  0.639338	T   T   T
 0.166890  0.832780  0.639673	T   T   T
 0.665953  0.332635  0.639381	T   T   T
 0.667335  0.832909  0.639602	T   T   T
 0.035204  0.322151  0.735274	T   T   T
 0.104532  0.243023  0.755500	T   T   T
