C1 O25 Ce12
1
 7.707464  0.000000  0.000000
-3.853732  6.674860  0.000000
 0.000000  0.000000 28.319031
Ce O C O
12 24 1 1
Selective Dynamics
Direct
 0.162615  0.325248  0.387186	T   T   T
 0.162749  0.825496  0.387405	T   T   T
 0.662634  0.325248  0.387186	T   T   T
 0.662782  0.825564  0.387193	T   T   T
-0.004936 -0.008962  0.612100	T   T   T
-0.004735  0.490531  0.612118	T   T   T
 0.495974 -0.008962  0.612100	T   T   T
 0.496156  0.492312  0.613166	T   T   T
 0.329498  0.158997  0.499812	T   T   T
 0.329385  0.658148  0.499759	T   T   T
 0.829241  0.158483  0.499650	T   T   T
 0.828762  0.658148  0.499759	T   T   T
 0.161712  0.324554  0.470816	T   T   T
 0.162671  0.825341  0.470691	T   T   T
 0.662842  0.324554  0.470816	T   T   T
 0.663046  0.826091  0.470739	T   T   T
-0.003941 -0.007978  0.358967	T   T   T
-0.003867  0.492266  0.359044	T   T   T
 0.495964 -0.007978  0.358967	T   T   T
 0.496014  0.492028  0.358932	T   T   T
 0.330424  0.160849  0.583998	T   T   T
 0.329730  0.656350  0.583924	T   T   T
 0.828827  0.157655  0.582835	T   T   T
 0.826619  0.656350  0.583924	T   T   T
-0.003680 -0.009050  0.528699	T   T   T
-0.003692  0.492615  0.528612	T   T   T
 0.494630 -0.009050  0.528699	T   T   T
 0.495965  0.491931  0.528218	T   T   T
 0.329292  0.158586  0.415903	T   T   T
 0.329537  0.658540  0.415901	T   T   T
 0.829144  0.158289  0.415818	T   T   T
 0.829003  0.658540  0.415901	T   T   T
 0.156514  0.321279  0.640833	T   T   T
 0.162319  0.824636  0.640343	T   T   T
 0.664766  0.321279  0.640833	T   T   T
 0.663622  0.827244  0.640556	T   T   T
 0.446742  0.393484  0.711597	T   T   T
 0.397904  0.295807  0.744791	T   T   T
