C1 O25 Ce12
1
 7.707464  0.000000  0.000000
-3.853732  6.674860  0.000000
 0.000000  0.000000 28.319031
Ce O C O
12 24 1 1
Selective Dynamics
Direct
 0.166855  0.333709  0.387028	T   T   T
 0.166809  0.833759  0.387012	T   T   T
 0.666889  0.333777  0.387148	T   T   T
 0.666951  0.833759  0.387012	T   T   T
 0.000533  0.001067  0.612938	T   T   T
 0.000195  0.500057  0.611873	T   T   T
 0.499770 -0.000461  0.611987	T   T   T
 0.499862  0.500057  0.611873	T   T   T
 0.333102  0.166635  0.499619	T   T   T
 0.333433  0.666867  0.499492	T   T   T
 0.833532  0.166635  0.499619	T   T   T
 0.833690  0.667382  0.499662	T   T   T
 0.167244  0.334486  0.470674	T   T   T
 0.167174  0.833126  0.470717	T   T   T
 0.666762  0.333522  0.470594	T   T   T
 0.665953  0.833126  0.470717	T   T   T
 0.000221  0.000442  0.358648	T   T   T
-0.000068  0.500357  0.358812	T   T   T
 0.500370  0.000741  0.358815	T   T   T
 0.500425  0.500357  0.358812	T   T   T
 0.331695  0.165342  0.583749	T   T   T
 0.333639  0.667279  0.582833	T   T   T
 0.833646  0.165342  0.583749	T   T   T
 0.834553  0.669108  0.583754	T   T   T
 0.000285  0.000571  0.528031	T   T   T
-0.001025  0.499526  0.528581	T   T   T
 0.500528  0.001056  0.528492	T   T   T
 0.500551  0.499526  0.528581	T   T   T
 0.332977  0.166747  0.415784	T   T   T
 0.333499  0.667000  0.415568	T   T   T
 0.833769  0.166747  0.415784	T   T   T
 0.833768  0.667537  0.415826	T   T   T
 0.168583  0.337165  0.640162	T   T   T
 0.168571  0.830670  0.640745	T   T   T
 0.666722  0.333443  0.640354	T   T   T
 0.662100  0.830670  0.640745	T   T   T
-0.027992 -0.055985  0.712388	T   T   T
 0.938882  0.877765  0.749616	T   T   T
