C1 O25 Ce12
1
 7.707464  0.000000  0.000000
-3.853732  6.674860  0.000000
 0.000000  0.000000 28.319031
Ce O C O
12 24 1 1
Selective Dynamics
Direct
 0.165012  0.328417  0.387072	T   T   T
 0.164865  0.828164  0.387248	T   T   T
 0.664948  0.328389  0.387072	T   T   T
 0.664827  0.828159  0.387099	T   T   T
-0.002598 -0.006525  0.611907	T   T   T
-0.002078  0.493721  0.611962	T   T   T
 0.497947 -0.006659  0.611900	T   T   T
 0.498214  0.494882  0.613299	T   T   T
 0.331647  0.161591  0.499693	T   T   T
 0.331581  0.660860  0.499644	T   T   T
 0.831399  0.161078  0.499478	T   T   T
 0.830919  0.660833  0.499659	T   T   T
 0.164084  0.327515  0.470697	T   T   T
 0.164811  0.827954  0.470680	T   T   T
 0.665008  0.327505  0.470727	T   T   T
 0.665134  0.828660  0.470744	T   T   T
-0.001669 -0.005206  0.358834	T   T   T
-0.001588  0.495221  0.358831	T   T   T
 0.498038 -0.005225  0.358885	T   T   T
 0.498311  0.495068  0.358680	T   T   T
 0.332515  0.162981  0.583876	T   T   T
 0.331405  0.659218  0.583865	T   T   T
 0.831373  0.160784  0.582846	T   T   T
 0.829555  0.659125  0.583903	T   T   T
-0.001449 -0.006361  0.528580	T   T   T
-0.001392  0.495498  0.528515	T   T   T
 0.496962 -0.006389  0.528589	T   T   T
 0.498023  0.494528  0.528304	T   T   T
 0.331759  0.161961  0.415816	T   T   T
 0.331756  0.661304  0.415829	T   T   T
 0.831631  0.161652  0.415650	T   T   T
 0.831083  0.661321  0.415835	T   T   T
 0.159206  0.324079  0.640608	T   T   T
 0.165053  0.828097  0.640424	T   T   T
 0.666632  0.323896  0.640752	T   T   T
 0.665435  0.829118  0.640441	T   T   T
 0.457352  0.397342  0.713094	T   T   T
 0.417634  0.303023  0.746752	T   T   T
