C1 O25 Ce12
1
 7.707464  0.000000  0.000000
-3.853732  6.674860  0.000000
 0.000000  0.000000 28.319031
Ce O C O
12 24 1 1
Selective Dynamics
Direct
 0.167148  0.333374  0.386652	T   T   T
 0.167233  0.833305  0.386625	T   T   T
 0.667214  0.333265  0.386712	T   T   T
 0.667139  0.833406  0.386640	T   T   T
 0.000784  0.000227  0.611675	T   T   T
 0.000733  0.500277  0.611613	T   T   T
 0.500605  0.000224  0.611805	T   T   T
 0.500535  0.500936  0.611558	T   T   T
 0.333935  0.166799  0.499162	T   T   T
 0.333827  0.666958  0.499107	T   T   T
 0.833985  0.166800  0.499185	T   T   T
 0.833844  0.666848  0.499126	T   T   T
 0.167150  0.333344  0.470238	T   T   T
 0.167184  0.833499  0.470253	T   T   T
 0.667127  0.333493  0.470398	T   T   T
 0.667314  0.833487  0.470270	T   T   T
 0.000443  0.000094  0.358420	T   T   T
 0.000716  0.499796  0.358388	T   T   T
 0.500710 -0.000205  0.358358	T   T   T
 0.500355  0.500111  0.358492	T   T   T
 0.334272  0.167276  0.583109	T   T   T
 0.333650  0.666949  0.583048	T   T   T
 0.834283  0.167120  0.583018	T   T   T
 0.833597  0.666715  0.582985	T   T   T
 0.000723  0.000189  0.528080	T   T   T
 0.000778  0.500264  0.528055	T   T   T
 0.500574 -0.000007  0.528154	T   T   T
 0.500180  0.500408  0.528084	T   T   T
 0.334010  0.166545  0.415268	T   T   T
 0.333821  0.666880  0.415341	T   T   T
 0.833666  0.166751  0.415408	T   T   T
 0.833942  0.666589  0.415262	T   T   T
 0.167557  0.333732  0.640067	T   T   T
 0.166781  0.833180  0.639753	T   T   T
 0.668040  0.333725  0.639889	T   T   T
 0.667174  0.833866  0.639804	T   T   T
 0.449398  0.276436  0.737113	T   T   T
 0.504007  0.443990  0.740676	T   T   T
