C1 O25 Ce12
1
 7.707464  0.000000  0.000000
-3.853732  6.674860  0.000000
 0.000000  0.000000 28.319031
Ce O C O
12 24 1 1
Selective Dynamics
Direct
 0.166948  0.333895  0.387091	T   T   T
 0.167049  0.833998  0.387134	T   T   T
 0.666942  0.333882  0.387169	T   T   T
 0.666950  0.833998  0.387134	T   T   T
 0.001040  0.002081  0.612618	T   T   T
 0.001333  0.502214  0.612160	T   T   T
 0.500927  0.001855  0.612127	T   T   T
 0.500880  0.502214  0.612160	T   T   T
 0.333794  0.168085  0.499722	T   T   T
 0.333967  0.667935  0.499658	T   T   T
 0.834290  0.168085  0.499722	T   T   T
 0.834180  0.668362  0.499728	T   T   T
 0.167482  0.334963  0.470655	T   T   T
 0.167198  0.834264  0.470812	T   T   T
 0.667458  0.334915  0.470736	T   T   T
 0.667067  0.834264  0.470812	T   T   T
 0.000393  0.000786  0.358738	T   T   T
 0.000067  0.500225  0.358851	T   T   T
 0.500386  0.000772  0.358817	T   T   T
 0.500158  0.500225  0.358851	T   T   T
 0.333545  0.168270  0.583750	T   T   T
 0.334339  0.668678  0.583337	T   T   T
 0.834724  0.168270  0.583750	T   T   T
 0.834797  0.669596  0.583608	T   T   T
 0.000989  0.001978  0.528612	T   T   T
 0.000544  0.501327  0.528627	T   T   T
 0.500980  0.001960  0.528630	T   T   T
 0.500782  0.501327  0.528627	T   T   T
 0.333480  0.167066  0.415825	T   T   T
 0.333853  0.667707  0.415720	T   T   T
 0.833584  0.167066  0.415825	T   T   T
 0.833935  0.667870  0.415745	T   T   T
 0.168630  0.337260  0.640604	T   T   T
 0.168362  0.835014  0.640537	T   T   T
 0.667831  0.335661  0.640534	T   T   T
 0.666653  0.835014  0.640537	T   T   T
 0.060441  0.120881  0.767973	T   T   T
 0.025130  0.050260  0.731181	T   T   T
