C1 O25 Ce12
1
 7.707464  0.000000  0.000000
-3.853732  6.674860  0.000000
 0.000000  0.000000 28.319031
Ce O C O
12 24 1 1
Selective Dynamics
Direct
 0.167000  0.332488  0.386957	T   T   T
 0.166956  0.832436  0.386934	T   T   T
 0.667037  0.332511  0.386935	T   T   T
 0.667026  0.832453  0.386945	T   T   T
 0.000960 -0.000813  0.611870	T   T   T
 0.000613  0.499155  0.612171	T   T   T
 0.500724 -0.001016  0.611905	T   T   T
 0.500834  0.498876  0.611869	T   T   T
 0.333924  0.165764  0.499462	T   T   T
 0.333668  0.665674  0.499508	T   T   T
 0.833842  0.165857  0.499502	T   T   T
 0.833848  0.665741  0.499458	T   T   T
 0.167028  0.332444  0.470634	T   T   T
 0.167120  0.832416  0.470562	T   T   T
 0.667139  0.332377  0.470577	T   T   T
 0.667146  0.832507  0.470550	T   T   T
 0.000329 -0.000959  0.358711	T   T   T
 0.000220  0.499199  0.358691	T   T   T
 0.500290 -0.000859  0.358731	T   T   T
 0.500431  0.499120  0.358709	T   T   T
 0.334923  0.165993  0.583156	T   T   T
 0.333634  0.665372  0.583460	T   T   T
 0.833779  0.166026  0.583376	T   T   T
 0.833802  0.665315  0.583358	T   T   T
 0.000415 -0.000982  0.528413	T   T   T
 0.000562  0.499187  0.528418	T   T   T
 0.500582 -0.001400  0.528318	T   T   T
 0.500622  0.499449  0.528330	T   T   T
 0.333671  0.165889  0.415620	T   T   T
 0.333546  0.665640  0.415630	T   T   T
 0.833825  0.165972  0.415622	T   T   T
 0.833698  0.665702  0.415602	T   T   T
 0.167648  0.330821  0.640076	T   T   T
 0.167453  0.833440  0.640044	T   T   T
 0.667438  0.332436  0.640471	T   T   T
 0.667324  0.832228  0.640320	T   T   T
 0.173804  0.494455  0.771572	T   T   T
 0.140472  0.539087  0.735649	T   T   T
