C1 O25 Ce12
1
 7.707464  0.000000  0.000000
-3.853732  6.674860  0.000000
 0.000000  0.000000 28.319031
Ce O C O
12 24 1 1
Selective Dynamics
Direct
 0.169549  0.336793  0.387077	T   T   T
 0.169507  0.836876  0.387076	T   T   T
 0.669619  0.336877  0.387236	T   T   T
 0.669686  0.836877  0.387086	T   T   T
 0.002817  0.003373  0.613235	T   T   T
 0.003993  0.504378  0.611870	T   T   T
 0.503646  0.003816  0.611826	T   T   T
 0.504017  0.504444  0.611814	T   T   T
 0.335982  0.169993  0.499685	T   T   T
 0.336591  0.670446  0.499414	T   T   T
 0.836701  0.170061  0.499640	T   T   T
 0.836818  0.670820  0.499592	T   T   T
 0.170080  0.337443  0.470749	T   T   T
 0.170216  0.836833  0.470622	T   T   T
 0.669717  0.336722  0.470518	T   T   T
 0.669234  0.836790  0.470648	T   T   T
 0.002946  0.003478  0.358793	T   T   T
 0.002755  0.503634  0.358914	T   T   T
 0.503165  0.003805  0.358925	T   T   T
 0.503341  0.503710  0.358954	T   T   T
 0.334711  0.169679  0.583756	T   T   T
 0.336862  0.670581  0.582727	T   T   T
 0.838100  0.170324  0.583754	T   T   T
 0.837838  0.671901  0.583749	T   T   T
 0.002967  0.003387  0.528302	T   T   T
 0.002248  0.503413  0.528383	T   T   T
 0.503781  0.004726  0.528523	T   T   T
 0.504116  0.503326  0.528418	T   T   T
 0.335836  0.170074  0.415827	T   T   T
 0.336279  0.670207  0.415641	T   T   T
 0.836744  0.170095  0.415830	T   T   T
 0.836642  0.670781  0.415860	T   T   T
 0.173516  0.343189  0.640734	T   T   T
 0.172746  0.835513  0.640498	T   T   T
 0.669495  0.336552  0.640234	T   T   T
 0.667781  0.836174  0.640341	T   T   T
 0.084870  0.068691  0.713124	T   T   T
 0.165478  0.127550  0.748415	T   T   T
