C1 O25 Ce12
1
 7.707464  0.000000  0.000000
-3.853732  6.674860  0.000000
 0.000000  0.000000 28.319031
Ce O C O
12 24 1 1
Selective Dynamics
Direct
 0.167601  0.335270  0.386053	T   T   T
 0.167473  0.834996  0.386015	T   T   T
 0.667493  0.335197  0.386077	T   T   T
 0.667354  0.834984  0.386060	T   T   T
 0.001264  0.002672  0.611203	T   T   T
 0.001308  0.502758  0.611072	T   T   T
 0.501007  0.002587  0.611142	T   T   T
 0.501113  0.502768  0.610865	T   T   T
 0.334052  0.168490  0.498610	T   T   T
 0.334187  0.668914  0.498509	T   T   T
 0.834290  0.168715  0.498655	T   T   T
 0.834511  0.668993  0.498553	T   T   T
 0.167381  0.335318  0.469642	T   T   T
 0.167466  0.835203  0.469656	T   T   T
 0.667733  0.335334  0.469637	T   T   T
 0.667631  0.835489  0.469769	T   T   T
 0.000927  0.002010  0.357758	T   T   T
 0.000650  0.501526  0.357728	T   T   T
 0.500975  0.002057  0.357762	T   T   T
 0.500725  0.501509  0.357861	T   T   T
 0.334569  0.169177  0.582575	T   T   T
 0.334090  0.669139  0.582395	T   T   T
 0.834576  0.169778  0.582475	T   T   T
 0.834560  0.668908  0.582380	T   T   T
 0.001339  0.002498  0.527519	T   T   T
 0.001009  0.502186  0.527556	T   T   T
 0.500840  0.002458  0.527530	T   T   T
 0.500735  0.501830  0.527463	T   T   T
 0.334225  0.168467  0.414735	T   T   T
 0.334146  0.668521  0.414732	T   T   T
 0.834116  0.168526  0.414744	T   T   T
 0.834150  0.668427  0.414698	T   T   T
 0.168100  0.336703  0.639490	T   T   T
 0.167405  0.835122  0.639450	T   T   T
 0.668301  0.336531  0.639500	T   T   T
 0.667686  0.836112  0.639012	T   T   T
 0.475419  0.405274  0.750776	T   T   T
 0.575138  0.575530  0.748135	T   T   T
