C1 O25 Ce12
1
 7.707464  0.000000  0.000000
-3.853732  6.674860  0.000000
 0.000000  0.000000 28.319031
Ce O C O
12 24 1 1
Selective Dynamics
Direct
 0.167282  0.333226  0.386350	T   T   T
 0.167399  0.833230  0.386420	T   T   T
 0.667300  0.333132  0.386424	T   T   T
 0.667261  0.833261  0.386447	T   T   T
 0.002052 -0.000578  0.611653	T   T   T
 0.001846  0.499321  0.612050	T   T   T
 0.501835 -0.000490  0.611688	T   T   T
 0.501971  0.499421  0.611668	T   T   T
 0.334644  0.166403  0.499044	T   T   T
 0.334545  0.666270  0.499103	T   T   T
 0.834835  0.166571  0.499092	T   T   T
 0.834774  0.666353  0.499122	T   T   T
 0.168130  0.333137  0.469911	T   T   T
 0.167696  0.833116  0.470218	T   T   T
 0.667759  0.333378  0.470189	T   T   T
 0.667872  0.832781  0.470153	T   T   T
 0.000587  0.000318  0.358108	T   T   T
 0.000717  0.499554  0.358050	T   T   T
 0.500678 -0.000103  0.358020	T   T   T
 0.500191  0.499806  0.358136	T   T   T
 0.334471  0.165820  0.582926	T   T   T
 0.334483  0.665781  0.583172	T   T   T
 0.835844  0.166758  0.583237	T   T   T
 0.835914  0.666389  0.582957	T   T   T
 0.001399 -0.000011  0.528030	T   T   T
 0.001641  0.499371  0.528122	T   T   T
 0.501821 -0.000344  0.528195	T   T   T
 0.501304  0.499659  0.528114	T   T   T
 0.334337  0.166086  0.415103	T   T   T
 0.334131  0.667100  0.415149	T   T   T
 0.833588  0.166424  0.415192	T   T   T
 0.834350  0.666494  0.415072	T   T   T
 0.169623  0.332654  0.640414	T   T   T
 0.169001  0.833089  0.640112	T   T   T
 0.667590  0.332565  0.639689	T   T   T
 0.668690  0.832856  0.639983	T   T   T
 0.035437  0.350500  0.747992	T   T   T
 0.139224  0.327368  0.772812	T   T   T
