C1 O25 Ce12
1
 7.707464  0.000000  0.000000
-3.853732  6.674860  0.000000
 0.000000  0.000000 28.319031
Ce O C O
12 24 1 1
Selective Dynamics
Direct
 0.166438  0.333666  0.385988	T   T   T
 0.166423  0.833683  0.386042	T   T   T
 0.666454  0.333676  0.386077	T   T   T
 0.666483  0.833690  0.386045	T   T   T
 0.000113  0.000807  0.611243	T   T   T
 0.000040  0.501007  0.610930	T   T   T
 0.500154  0.000898  0.611119	T   T   T
 0.500444  0.501086  0.610902	T   T   T
 0.333213  0.167204  0.498594	T   T   T
 0.333300  0.667258  0.498555	T   T   T
 0.833337  0.167213  0.498593	T   T   T
 0.833400  0.667397  0.498556	T   T   T
 0.166592  0.333823  0.469615	T   T   T
 0.166822  0.834056  0.469603	T   T   T
 0.666444  0.333573  0.469613	T   T   T
 0.666535  0.834052  0.469604	T   T   T
-0.000331  0.000154  0.357663	T   T   T
-0.000257  0.500468  0.357673	T   T   T
 0.499781  0.000322  0.357837	T   T   T
 0.499905  0.500458  0.357684	T   T   T
 0.333262  0.167808  0.582389	T   T   T
 0.333177  0.666948  0.582298	T   T   T
 0.833930  0.167848  0.582401	T   T   T
 0.833418  0.667395  0.582469	T   T   T
-0.000117  0.000443  0.527571	T   T   T
-0.000151  0.500767  0.527474	T   T   T
 0.500061  0.000719  0.527601	T   T   T
 0.500312  0.500791  0.527472	T   T   T
 0.332965  0.167158  0.414697	T   T   T
 0.332989  0.666819  0.414721	T   T   T
 0.833455  0.167204  0.414704	T   T   T
 0.833220  0.667120  0.414862	T   T   T
 0.166754  0.334320  0.639270	T   T   T
 0.167326  0.834302  0.639129	T   T   T
 0.666667  0.334101  0.639343	T   T   T
 0.666568  0.834354  0.639109	T   T   T
 0.163250  0.268658  0.745650	T   T   T
 0.256505  0.435400  0.754697	T   T   T
