C1 O25 Ce12
1
 7.707464  0.000000  0.000000
-3.853732  6.674860  0.000000
 0.000000  0.000000 28.319031
Ce O C O
12 24 1 1
Selective Dynamics
Direct
 0.166238  0.333087  0.385819	T   T   T
 0.166170  0.833064  0.385841	T   T   T
 0.666087  0.333093  0.385830	T   T   T
 0.666112  0.832956  0.385819	T   T   T
-0.001564 -0.000655  0.611341	T   T   T
-0.001624  0.499067  0.611275	T   T   T
 0.498940 -0.000616  0.611121	T   T   T
 0.498442  0.499234  0.611499	T   T   T
 0.332324  0.166253  0.498602	T   T   T
 0.332323  0.666065  0.498592	T   T   T
 0.832418  0.166151  0.498533	T   T   T
 0.832164  0.666101  0.498617	T   T   T
 0.165255  0.332678  0.469581	T   T   T
 0.165557  0.832682  0.469453	T   T   T
 0.666177  0.332933  0.469598	T   T   T
 0.666112  0.833185  0.469631	T   T   T
-0.000181 -0.000369  0.357549	T   T   T
-0.000230  0.500103  0.357559	T   T   T
 0.499058 -0.000445  0.357514	T   T   T
 0.499489  0.499659  0.357399	T   T   T
 0.332553  0.166779  0.582759	T   T   T
 0.332684  0.665961  0.582679	T   T   T
 0.831643  0.165485  0.582314	T   T   T
 0.830892  0.665712  0.582693	T   T   T
-0.000565 -0.000702  0.527663	T   T   T
-0.000831  0.499946  0.527698	T   T   T
 0.498283 -0.000766  0.527599	T   T   T
 0.498499  0.499161  0.527518	T   T   T
 0.333074  0.166923  0.414637	T   T   T
 0.333183  0.666156  0.414623	T   T   T
 0.832591  0.166212  0.414461	T   T   T
 0.832102  0.666093  0.414577	T   T   T
 0.164232  0.332529  0.639504	T   T   T
 0.164763  0.832394  0.639567	T   T   T
 0.666315  0.332277  0.639654	T   T   T
 0.665547  0.833358  0.639786	T   T   T
 0.360765  0.048461  0.743556	T   T   T
 0.367237  0.909815  0.755330	T   T   T
