C1 O25 Ce12
1
 7.707464  0.000000  0.000000
-3.853732  6.674860  0.000000
 0.000000  0.000000 28.319031
Ce O C O
12 24 1 1
Selective Dynamics
Direct
 0.168639  0.334846  0.386283	T   T   T
 0.168679  0.835024  0.386286	T   T   T
 0.668701  0.334935  0.386348	T   T   T
 0.668804  0.835036  0.386294	T   T   T
 0.002308  0.001813  0.611774	T   T   T
 0.002368  0.501915  0.611459	T   T   T
 0.502317  0.001654  0.611265	T   T   T
 0.502488  0.502109  0.611351	T   T   T
 0.335418  0.168418  0.498867	T   T   T
 0.335503  0.668431  0.498791	T   T   T
 0.835598  0.168496  0.498836	T   T   T
 0.835573  0.668506  0.498821	T   T   T
 0.168832  0.335245  0.469912	T   T   T
 0.168702  0.834836  0.469941	T   T   T
 0.668880  0.335184  0.469903	T   T   T
 0.668653  0.834890  0.469972	T   T   T
 0.002134  0.001922  0.357889	T   T   T
 0.002015  0.501413  0.358065	T   T   T
 0.502242  0.001881  0.357916	T   T   T
 0.502019  0.501487  0.358077	T   T   T
 0.334924  0.168194  0.582815	T   T   T
 0.335388  0.668448  0.582584	T   T   T
 0.836209  0.168632  0.582900	T   T   T
 0.836272  0.669067  0.582845	T   T   T
 0.002205  0.001847  0.527789	T   T   T
 0.001997  0.501660  0.527744	T   T   T
 0.502428  0.002155  0.527748	T   T   T
 0.502371  0.501654  0.527776	T   T   T
 0.335213  0.168095  0.415019	T   T   T
 0.335487  0.668518  0.414910	T   T   T
 0.835323  0.168077  0.414982	T   T   T
 0.835489  0.668597  0.414913	T   T   T
 0.169801  0.336155  0.639894	T   T   T
 0.169723  0.835010  0.639786	T   T   T
 0.668570  0.335144  0.639571	T   T   T
 0.668330  0.834754  0.639650	T   T   T
 0.230631  0.138624  0.738820	T   T   T
 0.393490  0.241773  0.749993	T   T   T
