C1 O25 Ce12
1
 7.707464  0.000000  0.000000
-3.853732  6.674860  0.000000
 0.000000  0.000000 28.319031
Ce O C O
12 24 1 1
Selective Dynamics
Direct
 0.166746  0.333506  0.386782	T   T   T
 0.166751  0.833626  0.386731	T   T   T
 0.666541  0.333472  0.386733	T   T   T
 0.666618  0.833492  0.386744	T   T   T
-0.000990  0.000228  0.611295	T   T   T
-0.000703  0.500061  0.611542	T   T   T
 0.499525  0.000314  0.611949	T   T   T
 0.499620  0.500647  0.611539	T   T   T
 0.333410  0.166956  0.499260	T   T   T
 0.333054  0.667042  0.499242	T   T   T
 0.832929  0.166826  0.499225	T   T   T
 0.833095  0.666844  0.499133	T   T   T
 0.166597  0.333548  0.470278	T   T   T
 0.166474  0.833555  0.470354	T   T   T
 0.666334  0.333597  0.470408	T   T   T
 0.666645  0.833556  0.470244	T   T   T
 0.000254  0.000361  0.358482	T   T   T
-0.000048  0.500116  0.358548	T   T   T
 0.499959  0.000356  0.358467	T   T   T
 0.499896  0.499989  0.358513	T   T   T
 0.333013  0.166549  0.583053	T   T   T
 0.332869  0.667452  0.582881	T   T   T
 0.832620  0.166784  0.583066	T   T   T
 0.832810  0.667116  0.582700	T   T   T
-0.000203  0.000540  0.528175	T   T   T
-0.000496  0.499845  0.528125	T   T   T
 0.499949  0.000217  0.528296	T   T   T
 0.499511  0.500469  0.528165	T   T   T
 0.333454  0.166817  0.415418	T   T   T
 0.333582  0.667087  0.415389	T   T   T
 0.833019  0.166666  0.415429	T   T   T
 0.833180  0.666856  0.415348	T   T   T
 0.166785  0.334128  0.639509	T   T   T
 0.164786  0.832087  0.639706	T   T   T
 0.666480  0.334427  0.639767	T   T   T
 0.666196  0.833669  0.639650	T   T   T
 0.280151  0.049481  0.734341	T   T   T
 0.136979  0.052829  0.743305	T   T   T
