C1 O25 Ce12
1
 7.707464  0.000000  0.000000
-3.853732  6.674860  0.000000
 0.000000  0.000000 28.319031
Ce O C O
12 24 1 1
Selective Dynamics
Direct
 0.167815  0.333170  0.386501	T   T   T
 0.167913  0.833182  0.386511	T   T   T
 0.667824  0.333077  0.386516	T   T   T
 0.667781  0.833243  0.386528	T   T   T
 0.002178 -0.000088  0.611341	T   T   T
 0.002217  0.499224  0.611522	T   T   T
 0.501955 -0.000398  0.611466	T   T   T
 0.501943  0.499526  0.611328	T   T   T
 0.334999  0.166343  0.498967	T   T   T
 0.334993  0.666537  0.499004	T   T   T
 0.834794  0.166357  0.499005	T   T   T
 0.835016  0.666382  0.499085	T   T   T
 0.168172  0.333146  0.470095	T   T   T
 0.168633  0.833277  0.470046	T   T   T
 0.667936  0.332582  0.470037	T   T   T
 0.667850  0.833365  0.470055	T   T   T
 0.001242  0.000016  0.358355	T   T   T
 0.001245  0.499718  0.358328	T   T   T
 0.501144 -0.000147  0.358195	T   T   T
 0.501007  0.499758  0.358374	T   T   T
 0.334713  0.166444  0.582652	T   T   T
 0.334931  0.665713  0.582741	T   T   T
 0.835860  0.166551  0.582754	T   T   T
 0.835700  0.666414  0.583003	T   T   T
 0.001207 -0.000783  0.527883	T   T   T
 0.001475  0.499677  0.527991	T   T   T
 0.501910 -0.000300  0.528026	T   T   T
 0.502398  0.500153  0.527889	T   T   T
 0.334748  0.166265  0.415158	T   T   T
 0.334685  0.666802  0.415223	T   T   T
 0.834341  0.166393  0.415273	T   T   T
 0.834619  0.666489  0.415340	T   T   T
 0.168936  0.332850  0.639801	T   T   T
 0.169366  0.833288  0.639684	T   T   T
 0.667810  0.332162  0.639462	T   T   T
 0.668282  0.833304  0.639659	T   T   T
 0.069000  0.329444  0.777683	T   T   T
-0.015526  0.347529  0.746635	T   T   T
