C1 O25 Ce12
1
 7.707464  0.000000  0.000000
-3.853732  6.674860  0.000000
 0.000000  0.000000 28.319031
Ce O C O
12 24 1 1
Selective Dynamics
Direct
 0.167322  0.334382  0.386705	T   T   T
 0.167416  0.834506  0.386657	T   T   T
 0.667420  0.334378  0.386744	T   T   T
 0.667466  0.834592  0.386722	T   T   T
 0.001016  0.001440  0.611452	T   T   T
 0.001087  0.501588  0.611301	T   T   T
 0.500935  0.001373  0.611451	T   T   T
 0.501014  0.501874  0.611254	T   T   T
 0.334245  0.167935  0.498986	T   T   T
 0.334099  0.667908  0.498979	T   T   T
 0.834186  0.168045  0.499007	T   T   T
 0.834094  0.667841  0.498978	T   T   T
 0.167396  0.334612  0.470127	T   T   T
 0.167486  0.834555  0.470131	T   T   T
 0.667573  0.334603  0.470155	T   T   T
 0.667518  0.834656  0.470242	T   T   T
 0.000786  0.001381  0.358512	T   T   T
 0.000794  0.501067  0.358509	T   T   T
 0.500992  0.001290  0.358521	T   T   T
 0.500706  0.501207  0.358653	T   T   T
 0.334593  0.168210  0.582782	T   T   T
 0.333948  0.667951  0.582760	T   T   T
 0.834482  0.168768  0.582769	T   T   T
 0.834264  0.667727  0.582733	T   T   T
 0.000963  0.001396  0.527906	T   T   T
 0.001042  0.501536  0.527858	T   T   T
 0.500865  0.001204  0.527928	T   T   T
 0.500705  0.501345  0.527914	T   T   T
 0.334170  0.167830  0.415304	T   T   T
 0.334210  0.668002  0.415404	T   T   T
 0.834041  0.167807  0.415367	T   T   T
 0.834098  0.667912  0.415357	T   T   T
 0.167987  0.335022  0.639672	T   T   T
 0.167515  0.834555  0.639461	T   T   T
 0.667645  0.335006  0.639707	T   T   T
 0.667675  0.835003  0.639314	T   T   T
 0.487613  0.365014  0.743461	T   T   T
 0.566179  0.535349  0.739009	T   T   T
