C1 O25 Ce12
1
 7.707464  0.000000  0.000000
-3.853732  6.674860  0.000000
 0.000000  0.000000 28.319031
Ce O C O
12 24 1 1
Selective Dynamics
Direct
 0.166239  0.333129  0.386751	T   T   T
 0.166234  0.833172  0.386751	T   T   T
 0.666238  0.333164  0.386759	T   T   T
 0.666288  0.833166  0.386735	T   T   T
-0.000612 -0.000307  0.611855	T   T   T
-0.001211  0.499671  0.611978	T   T   T
 0.499252 -0.000375  0.611837	T   T   T
 0.499522  0.499659  0.611962	T   T   T
 0.332874  0.166490  0.499282	T   T   T
 0.332800  0.666321  0.499323	T   T   T
 0.832763  0.166447  0.499306	T   T   T
 0.832863  0.666471  0.499280	T   T   T
 0.166239  0.333069  0.470413	T   T   T
 0.166193  0.833240  0.470354	T   T   T
 0.666042  0.332970  0.470411	T   T   T
 0.666264  0.833194  0.470265	T   T   T
-0.000488 -0.000247  0.358433	T   T   T
-0.000663  0.499717  0.358523	T   T   T
 0.499594 -0.000073  0.358466	T   T   T
 0.499656  0.499724  0.358421	T   T   T
 0.332730  0.166523  0.583125	T   T   T
 0.332354  0.665845  0.583282	T   T   T
 0.832928  0.166618  0.583253	T   T   T
 0.832821  0.666469  0.583301	T   T   T
-0.000759 -0.000260  0.528213	T   T   T
-0.000624  0.499739  0.528277	T   T   T
 0.499369 -0.000644  0.528194	T   T   T
 0.499812  0.500078  0.528211	T   T   T
 0.332878  0.166518  0.415444	T   T   T
 0.332844  0.666412  0.415424	T   T   T
 0.832951  0.166560  0.415483	T   T   T
 0.832894  0.666418  0.415440	T   T   T
 0.166499  0.332721  0.640340	T   T   T
 0.166213  0.833384  0.640215	T   T   T
 0.665718  0.332755  0.640099	T   T   T
 0.665710  0.833220  0.640119	T   T   T
 0.178260  0.511103  0.740171	T   T   T
 0.026481  0.497941  0.732096	T   T   T
