C1 O25 Ce12
1
 7.707464  0.000000  0.000000
-3.853732  6.674860  0.000000
 0.000000  0.000000 28.319031
Ce O C O
12 24 1 1
Selective Dynamics
Direct
 0.166156  0.331848  0.386389	T   T   T
 0.165960  0.831652  0.386494	T   T   T
 0.665975  0.331861  0.386412	T   T   T
 0.665946  0.831572  0.386389	T   T   T
-0.001252 -0.003524  0.611263	T   T   T
-0.001360  0.496476  0.611287	T   T   T
 0.498893 -0.003378  0.611185	T   T   T
 0.498750  0.496643  0.611599	T   T   T
 0.332431  0.164349  0.498898	T   T   T
 0.332573  0.664378  0.498893	T   T   T
 0.832401  0.164335  0.498880	T   T   T
 0.832264  0.664343  0.498892	T   T   T
 0.165952  0.331322  0.469937	T   T   T
 0.165959  0.831190  0.469966	T   T   T
 0.665664  0.331160  0.469908	T   T   T
 0.665630  0.831093  0.469935	T   T   T
-0.000521 -0.001670  0.358256	T   T   T
-0.000500  0.498737  0.358256	T   T   T
 0.499124 -0.001680  0.358259	T   T   T
 0.499372  0.498529  0.358082	T   T   T
 0.332108  0.164001  0.582598	T   T   T
 0.331863  0.662929  0.582617	T   T   T
 0.832797  0.163760  0.582562	T   T   T
 0.832050  0.663417  0.582714	T   T   T
-0.001102 -0.002789  0.527770	T   T   T
-0.001191  0.497438  0.527806	T   T   T
 0.499132 -0.002504  0.527840	T   T   T
 0.499099  0.497350  0.527880	T   T   T
 0.332735  0.165257  0.415140	T   T   T
 0.332784  0.664770  0.415129	T   T   T
 0.832703  0.165084  0.415101	T   T   T
 0.832337  0.664821  0.415165	T   T   T
 0.165237  0.329789  0.639737	T   T   T
 0.166208  0.831035  0.639456	T   T   T
 0.665636  0.329559  0.639305	T   T   T
 0.665262  0.830256  0.639409	T   T   T
 0.319792  0.201347  0.740538	T   T   T
 0.183146  0.047485  0.747843	T   T   T
