C1 O25 Ce12
1
 7.707464  0.000000  0.000000
-3.853732  6.674860  0.000000
 0.000000  0.000000 28.319031
Ce O C O
12 24 1 1
Selective Dynamics
Direct
 0.165445  0.331241  0.386620	T   T   T
 0.165580  0.831450  0.386615	T   T   T
 0.665531  0.331229  0.386631	T   T   T
 0.665578  0.831465  0.386666	T   T   T
-0.001545 -0.002624  0.611328	T   T   T
-0.000848  0.498203  0.611535	T   T   T
 0.499003 -0.002240  0.611361	T   T   T
 0.499146  0.498005  0.611856	T   T   T
 0.332403  0.164979  0.499071	T   T   T
 0.332267  0.664457  0.499113	T   T   T
 0.832383  0.164741  0.499039	T   T   T
 0.832119  0.664534  0.499101	T   T   T
 0.165668  0.331201  0.470204	T   T   T
 0.165696  0.831593  0.470153	T   T   T
 0.665399  0.331173  0.470216	T   T   T
 0.665610  0.831387  0.470144	T   T   T
-0.001244 -0.001916  0.358320	T   T   T
-0.001210  0.497938  0.358297	T   T   T
 0.499026 -0.001861  0.358377	T   T   T
 0.498962  0.498070  0.358445	T   T   T
 0.332204  0.165014  0.582887	T   T   T
 0.332205  0.664234  0.582964	T   T   T
 0.832590  0.164610  0.582718	T   T   T
 0.832317  0.664598  0.582968	T   T   T
-0.001091 -0.002270  0.527948	T   T   T
-0.000894  0.498252  0.527947	T   T   T
 0.498755 -0.002276  0.528003	T   T   T
 0.499140  0.498344  0.528092	T   T   T
 0.332164  0.164684  0.415248	T   T   T
 0.331999  0.664608  0.415293	T   T   T
 0.832377  0.164844  0.415288	T   T   T
 0.832360  0.664670  0.415279	T   T   T
 0.164649  0.330774  0.639911	T   T   T
 0.166111  0.831432  0.639685	T   T   T
 0.665826  0.330535  0.639638	T   T   T
 0.665578  0.831265  0.639628	T   T   T
 0.319327  0.249777  0.734936	T   T   T
 0.189424  0.097236  0.746263	T   T   T
