C1 O25 Ce12
1
 7.707464  0.000000  0.000000
-3.853732  6.674860  0.000000
 0.000000  0.000000 28.319031
Ce O C O
12 24 1 1
Selective Dynamics
Direct
 0.167647  0.332488  0.386899	T   T   T
 0.167638  0.832343  0.386841	T   T   T
 0.667826  0.332523  0.386842	T   T   T
 0.667760  0.832408  0.386876	T   T   T
 0.001347 -0.000835  0.611942	T   T   T
 0.001021  0.498916  0.612283	T   T   T
 0.501135 -0.001155  0.611950	T   T   T
 0.500675  0.498572  0.611947	T   T   T
 0.334304  0.165725  0.499411	T   T   T
 0.334121  0.665458  0.499444	T   T   T
 0.834631  0.165959  0.499444	T   T   T
 0.834362  0.665684  0.499397	T   T   T
 0.167700  0.332441  0.470402	T   T   T
 0.167447  0.832343  0.470447	T   T   T
 0.667766  0.332701  0.470448	T   T   T
 0.667861  0.832152  0.470426	T   T   T
 0.000887 -0.001029  0.358538	T   T   T
 0.000880  0.499235  0.358523	T   T   T
 0.501025 -0.000854  0.358754	T   T   T
 0.501155  0.499232  0.358535	T   T   T
 0.334337  0.165224  0.583260	T   T   T
 0.333919  0.665471  0.583438	T   T   T
 0.834647  0.166055  0.583457	T   T   T
 0.834694  0.665501  0.583083	T   T   T
 0.001227 -0.000415  0.528348	T   T   T
 0.001241  0.498806  0.528366	T   T   T
 0.501298 -0.001135  0.528334	T   T   T
 0.500434  0.498733  0.528386	T   T   T
 0.334200  0.165926  0.415575	T   T   T
 0.334127  0.665554  0.415546	T   T   T
 0.834584  0.165990  0.415546	T   T   T
 0.834461  0.665715  0.415441	T   T   T
 0.168583  0.331650  0.640381	T   T   T
 0.167810  0.832522  0.640276	T   T   T
 0.667103  0.332120  0.640135	T   T   T
 0.668032  0.832021  0.640232	T   T   T
 0.060100  0.381527  0.771079	T   T   T
 0.013126  0.432207  0.737881	T   T   T
