C1 O25 Ce12
1
 7.707464  0.000000  0.000000
-3.853732  6.674860  0.000000
 0.000000  0.000000 28.319031
Ce O C O
12 24 1 1
Selective Dynamics
Direct
 0.167183  0.333542  0.386838	T   T   T
 0.167143  0.833571  0.386838	T   T   T
 0.667117  0.333569  0.386844	T   T   T
 0.667150  0.833519  0.386850	T   T   T
 0.001194  0.000448  0.611824	T   T   T
 0.001085  0.500675  0.611770	T   T   T
 0.501385  0.000334  0.611645	T   T   T
 0.501098  0.500584  0.611732	T   T   T
 0.334028  0.166963  0.499354	T   T   T
 0.334019  0.666988  0.499324	T   T   T
 0.834232  0.167037  0.499337	T   T   T
 0.834146  0.667082  0.499361	T   T   T
 0.167520  0.333613  0.470350	T   T   T
 0.167269  0.833699  0.470442	T   T   T
 0.667209  0.333857  0.470421	T   T   T
 0.667397  0.833421  0.470363	T   T   T
 0.000456  0.000293  0.358545	T   T   T
 0.000469  0.500084  0.358573	T   T   T
 0.500600  0.000279  0.358557	T   T   T
 0.500446  0.500199  0.358598	T   T   T
 0.334334  0.166482  0.583133	T   T   T
 0.334350  0.667739  0.583053	T   T   T
 0.834061  0.166937  0.583208	T   T   T
 0.834958  0.667552  0.582952	T   T   T
 0.001056  0.000676  0.528378	T   T   T
 0.000992  0.500280  0.528196	T   T   T
 0.500954  0.000324  0.528194	T   T   T
 0.500480  0.500301  0.528282	T   T   T
 0.333805  0.166835  0.415553	T   T   T
 0.333848  0.666920  0.415513	T   T   T
 0.833861  0.166885  0.415496	T   T   T
 0.833935  0.666987  0.415513	T   T   T
 0.167643  0.333773  0.639955	T   T   T
 0.167505  0.833790  0.640208	T   T   T
 0.667784  0.334790  0.639952	T   T   T
 0.668324  0.833386  0.639700	T   T   T
 0.392503  0.075793  0.739846	T   T   T
 0.504408  0.021904  0.733093	T   T   T
