C1 O25 Ce12
1
 7.707464  0.000000  0.000000
-3.853732  6.674860  0.000000
 0.000000  0.000000 28.319031
Ce O C O
12 24 1 1
Selective Dynamics
Direct
 0.165618  0.331952  0.386934	T   T   T
 0.165563  0.832012  0.387037	T   T   T
 0.665499  0.332001  0.386866	T   T   T
 0.665579  0.831918  0.386947	T   T   T
 0.000501 -0.001507  0.611978	T   T   T
 0.000975  0.498529  0.611966	T   T   T
 0.500923 -0.001818  0.611897	T   T   T
 0.500632  0.498391  0.612763	T   T   T
 0.333378  0.165639  0.499581	T   T   T
 0.333306  0.665170  0.499545	T   T   T
 0.833159  0.165328  0.499435	T   T   T
 0.832855  0.665167  0.499581	T   T   T
 0.166232  0.332145  0.470674	T   T   T
 0.166388  0.831878  0.470630	T   T   T
 0.666341  0.331941  0.470493	T   T   T
 0.666082  0.831972  0.470666	T   T   T
-0.001141 -0.001477  0.358707	T   T   T
-0.001529  0.498570  0.358651	T   T   T
 0.498580 -0.001190  0.358608	T   T   T
 0.498793  0.498298  0.358509	T   T   T
 0.334589  0.166161  0.583655	T   T   T
 0.334427  0.664884  0.583484	T   T   T
 0.833818  0.164799  0.583130	T   T   T
 0.833085  0.664753  0.583729	T   T   T
 0.000323 -0.001729  0.528474	T   T   T
-0.000037  0.498968  0.528492	T   T   T
 0.499752 -0.001307  0.528413	T   T   T
 0.500314  0.498428  0.528572	T   T   T
 0.332213  0.165444  0.415685	T   T   T
 0.332538  0.665157  0.415552	T   T   T
 0.832421  0.165069  0.415550	T   T   T
 0.832181  0.665472  0.415661	T   T   T
 0.165917  0.331304  0.640285	T   T   T
 0.167889  0.832366  0.640411	T   T   T
 0.668932  0.330536  0.640571	T   T   T
 0.667547  0.832403  0.640454	T   T   T
 0.498242  0.355351  0.738408	T   T   T
 0.508118  0.252581  0.766122	T   T   T
