C1 O25 Ce12
1
 7.707464  0.000000  0.000000
-3.853732  6.674860  0.000000
 0.000000  0.000000 28.319031
Ce O C O
12 24 1 1
Selective Dynamics
Direct
 0.165945  0.332690  0.386279	T   T   T
 0.165975  0.832600  0.386320	T   T   T
 0.666070  0.332694  0.386250	T   T   T
 0.666019  0.832653  0.386231	T   T   T
-0.000854 -0.000844  0.611239	T   T   T
-0.000684  0.499153  0.611289	T   T   T
 0.499454 -0.000728  0.611175	T   T   T
 0.499514  0.499349  0.611430	T   T   T
 0.332780  0.166165  0.498796	T   T   T
 0.332812  0.665990  0.498792	T   T   T
 0.832694  0.165994  0.498740	T   T   T
 0.832700  0.665967  0.498789	T   T   T
 0.166351  0.332760  0.469920	T   T   T
 0.166238  0.832837  0.469929	T   T   T
 0.665793  0.332637  0.469821	T   T   T
 0.665881  0.832534  0.469789	T   T   T
-0.001086 -0.000794  0.358009	T   T   T
-0.000812  0.499123  0.357936	T   T   T
 0.499598 -0.000725  0.357993	T   T   T
 0.499488  0.499570  0.357981	T   T   T
 0.332640  0.166285  0.582599	T   T   T
 0.332556  0.665687  0.582647	T   T   T
 0.832799  0.165937  0.582565	T   T   T
 0.832879  0.665895  0.582748	T   T   T
-0.000946 -0.000891  0.527652	T   T   T
-0.000805  0.499193  0.527648	T   T   T
 0.499521 -0.000596  0.527651	T   T   T
 0.499816  0.499643  0.527763	T   T   T
 0.332517  0.165895  0.414864	T   T   T
 0.332313  0.665828  0.414919	T   T   T
 0.832895  0.166263  0.414988	T   T   T
 0.832967  0.665954  0.414940	T   T   T
 0.165514  0.332309  0.639635	T   T   T
 0.166750  0.833412  0.639612	T   T   T
 0.666187  0.332171  0.639433	T   T   T
 0.665972  0.832606  0.639559	T   T   T
 0.266155  0.132460  0.751084	T   T   T
 0.397494  0.285636  0.740773	T   T   T
