C1 O25 Ce12
1
 7.707464  0.000000  0.000000
-3.853732  6.674860  0.000000
 0.000000  0.000000 28.319031
Ce O C O
12 24 1 1
Selective Dynamics
Direct
 0.166218  0.333326  0.387701	T   T   T
 0.166223  0.833283  0.387899	T   T   T
 0.666175  0.333245  0.387751	T   T   T
 0.666137  0.833282  0.387738	T   T   T
-0.000835  0.000227  0.612688	T   T   T
-0.000771  0.499881  0.612639	T   T   T
 0.499710  0.000274  0.612611	T   T   T
 0.499362  0.499983  0.614224	T   T   T
 0.332848  0.167290  0.500405	T   T   T
 0.332909  0.666314  0.500408	T   T   T
 0.832817  0.166688  0.500195	T   T   T
 0.831879  0.666335  0.500412	T   T   T
 0.165027  0.332879  0.471348	T   T   T
 0.166162  0.833391  0.471264	T   T   T
 0.666360  0.332732  0.471369	T   T   T
 0.666315  0.834260  0.471364	T   T   T
-0.000191 -0.000241  0.359427	T   T   T
-0.000141  0.500405  0.359423	T   T   T
 0.499106 -0.000317  0.359438	T   T   T
 0.499502  0.499966  0.359276	T   T   T
 0.332945  0.168801  0.584600	T   T   T
 0.333314  0.665343  0.584551	T   T   T
 0.833792  0.166882  0.583525	T   T   T
 0.830576  0.666035  0.584681	T   T   T
-0.000315 -0.000807  0.529223	T   T   T
-0.000509  0.501104  0.529290	T   T   T
 0.498631 -0.000164  0.529410	T   T   T
 0.499287  0.499986  0.529025	T   T   T
 0.333174  0.167341  0.416446	T   T   T
 0.333149  0.666287  0.416451	T   T   T
 0.832782  0.166621  0.416172	T   T   T
 0.832047  0.666231  0.416472	T   T   T
 0.162409  0.332005  0.641806	T   T   T
 0.166211  0.833547  0.641153	T   T   T
 0.667720  0.330967  0.641101	T   T   T
 0.667167  0.837161  0.641468	T   T   T
 0.472989  0.498429  0.717988	T   T   T
 0.438705  0.501029  0.757172	T   T   T
