C1 O25 Ce12
1
 7.707464  0.000000  0.000000
-3.853732  6.674860  0.000000
 0.000000  0.000000 28.319031
Ce O C O
12 24 1 1
Selective Dynamics
Direct
 0.166645  0.333355  0.387519	T   T   T
 0.166645  0.833289  0.387519	T   T   T
 0.666711  0.333355  0.387519	T   T   T
 0.666667  0.833333  0.387625	T   T   T
 0.000390  0.000195  0.612867	T   T   T
 0.000000  0.500000  0.614378	T   T   T
 0.499805  0.000195  0.612867	T   T   T
 0.499805  0.499610  0.612867	T   T   T
 0.333333  0.166667  0.500214	T   T   T
 0.332710  0.666355  0.500352	T   T   T
 0.833645  0.167290  0.500352	T   T   T
 0.833645  0.666355  0.500352	T   T   T
 0.167218  0.332782  0.471402	T   T   T
 0.167218  0.834435  0.471402	T   T   T
 0.665565  0.332782  0.471402	T   T   T
 0.666667  0.833333  0.471165	T   T   T
-0.000491 -0.000246  0.359192	T   T   T
 0.000000  0.500000  0.359001	T   T   T
 0.500246 -0.000246  0.359192	T   T   T
 0.500246  0.500491  0.359192	T   T   T
 0.333333  0.166667  0.583810	T   T   T
 0.330840  0.665420  0.584704	T   T   T
 0.834580  0.169160  0.584704	T   T   T
 0.834580  0.665420  0.584704	T   T   T
-0.001333 -0.000667  0.529421	T   T   T
 0.000000  0.500000  0.528786	T   T   T
 0.500667 -0.000667  0.529421	T   T   T
 0.500667  0.501333  0.529421	T   T   T
 0.333333  0.166667  0.416078	T   T   T
 0.332480  0.666241  0.416326	T   T   T
 0.833759  0.167520  0.416326	T   T   T
 0.833759  0.666241  0.416326	T   T   T
 0.168786  0.331214  0.641757	T   T   T
 0.168786  0.837570  0.641757	T   T   T
 0.662430  0.331214  0.641757	T   T   T
 0.666667  0.833333  0.641313	T   T   T
 0.000000  0.500000  0.717385	T   T   T
 0.000000  0.500000  0.757736	T   T   T
