C1 O25 Ce12
1
 7.707464  0.000000  0.000000
-3.853732  6.674860  0.000000
 0.000000  0.000000 28.319031
Ce O C O
12 24 1 1
Selective Dynamics
Direct
 0.169355  0.335546  0.388127	T   T   T
 0.169490  0.835901  0.388038	T   T   T
 0.669282  0.335507  0.388212	T   T   T
 0.669511  0.835837  0.388050	T   T   T
 0.002830  0.003250  0.614194	T   T   T
 0.003729  0.504423  0.612910	T   T   T
 0.503608  0.003659  0.612913	T   T   T
 0.503859  0.504511  0.612864	T   T   T
 0.335851  0.169596  0.500720	T   T   T
 0.336324  0.669757  0.500488	T   T   T
 0.836703  0.169712  0.500698	T   T   T
 0.836670  0.670312  0.500651	T   T   T
 0.169926  0.337020  0.471824	T   T   T
 0.170057  0.835894  0.471749	T   T   T
 0.669670  0.336233  0.471649	T   T   T
 0.668787  0.835942  0.471760	T   T   T
 0.002961  0.002543  0.359619	T   T   T
 0.002449  0.501849  0.359939	T   T   T
 0.502897  0.002712  0.359772	T   T   T
 0.502641  0.501812  0.359896	T   T   T
 0.334511  0.169899  0.584874	T   T   T
 0.336706  0.669816  0.583823	T   T   T
 0.838406  0.170251  0.584824	T   T   T
 0.837622  0.672214  0.584884	T   T   T
 0.002799  0.002937  0.529236	T   T   T
 0.002009  0.503047  0.529490	T   T   T
 0.503720  0.004435  0.529689	T   T   T
 0.504123  0.502968  0.529493	T   T   T
 0.335424  0.168653  0.416891	T   T   T
 0.336332  0.669472  0.416594	T   T   T
 0.836195  0.168493  0.416860	T   T   T
 0.836492  0.669980  0.416860	T   T   T
 0.172868  0.342116  0.642109	T   T   T
 0.173051  0.835360  0.641422	T   T   T
 0.669866  0.337174  0.641354	T   T   T
 0.667072  0.836314  0.641431	T   T   T
 0.075183  0.074127  0.714270	T   T   T
 0.144356  0.144063  0.749943	T   T   T
