C1 O25 Ce12
1
 7.707464  0.000000  0.000000
-3.853732  6.674860  0.000000
 0.000000  0.000000 28.319031
Ce O C O
12 24 1 1
Selective Dynamics
Direct
 0.166076  0.331771  0.386824	T   T   T
 0.166047  0.831976  0.386856	T   T   T
 0.666081  0.331897  0.386958	T   T   T
 0.666192  0.831911  0.386832	T   T   T
-0.000069 -0.001081  0.613389	T   T   T
 0.000661  0.498653  0.611703	T   T   T
 0.500806 -0.001354  0.611661	T   T   T
 0.500564  0.499045  0.611776	T   T   T
 0.332528  0.165105  0.499566	T   T   T
 0.333233  0.665321  0.499295	T   T   T
 0.833472  0.165168  0.499470	T   T   T
 0.833426  0.665934  0.499540	T   T   T
 0.166904  0.332509  0.470516	T   T   T
 0.166742  0.831827  0.470609	T   T   T
 0.666400  0.332015  0.470424	T   T   T
 0.665966  0.831690  0.470495	T   T   T
-0.000390 -0.001408  0.358463	T   T   T
-0.000637  0.498435  0.358618	T   T   T
 0.499617 -0.001222  0.358601	T   T   T
 0.499622  0.498318  0.358597	T   T   T
 0.331331  0.164231  0.583779	T   T   T
 0.334094  0.665286  0.582631	T   T   T
 0.834761  0.165376  0.583695	T   T   T
 0.834813  0.667296  0.583727	T   T   T
-0.000275 -0.001044  0.528151	T   T   T
-0.000871  0.498316  0.528325	T   T   T
 0.500731 -0.000039  0.528312	T   T   T
 0.500659  0.498055  0.528283	T   T   T
 0.332519  0.165066  0.415464	T   T   T
 0.332831  0.665207  0.415366	T   T   T
 0.833262  0.165132  0.415517	T   T   T
 0.833256  0.665710  0.415518	T   T   T
 0.169328  0.336158  0.640445	T   T   T
 0.170256  0.829740  0.640696	T   T   T
 0.666748  0.331972  0.640204	T   T   T
 0.664993  0.831207  0.640302	T   T   T
 0.086683  0.014647  0.716349	T   T   T
 0.170920  0.031175  0.750834	T   T   T
