C1 O25 Ce12
1
 7.707464  0.000000  0.000000
-3.853732  6.674860  0.000000
 0.000000  0.000000 28.319031
Ce O C O
12 24 1 1
Selective Dynamics
Direct
 0.166378  0.332756  0.386767	T   T   T
 0.166482  0.832699  0.386896	T   T   T
 0.666247  0.332494  0.386892	T   T   T
 0.666218  0.832699  0.386896	T   T   T
-0.001058 -0.002116  0.611825	T   T   T
-0.000816  0.498316  0.611933	T   T   T
 0.499232 -0.001535  0.611956	T   T   T
 0.499132  0.498316  0.611933	T   T   T
 0.332430  0.165302  0.499415	T   T   T
 0.332527  0.665056  0.499395	T   T   T
 0.832870  0.165302  0.499415	T   T   T
 0.832501  0.665002  0.499390	T   T   T
 0.165866  0.331731  0.470252	T   T   T
 0.165765  0.832014  0.470571	T   T   T
 0.666076  0.332151  0.470599	T   T   T
 0.666250  0.832014  0.470571	T   T   T
-0.000177 -0.000355  0.358573	T   T   T
 0.000185  0.499523  0.358509	T   T   T
 0.499605 -0.000790  0.358524	T   T   T
 0.499338  0.499523  0.358509	T   T   T
 0.332867  0.165877  0.583243	T   T   T
 0.331977  0.663956  0.583467	T   T   T
 0.833009  0.165877  0.583243	T   T   T
 0.831849  0.663698  0.583122	T   T   T
-0.000731 -0.001461  0.528372	T   T   T
-0.000215  0.498341  0.528267	T   T   T
 0.499193 -0.001614  0.528525	T   T   T
 0.498556  0.498341  0.528267	T   T   T
 0.333396  0.165767  0.415512	T   T   T
 0.333154  0.666309  0.415579	T   T   T
 0.832370  0.165767  0.415512	T   T   T
 0.832746  0.665493  0.415448	T   T   T
 0.164589  0.329178  0.640547	T   T   T
 0.165354  0.831814  0.639910	T   T   T
 0.665474  0.330946  0.640371	T   T   T
 0.666460  0.831814  0.639910	T   T   T
 0.263406  0.526811  0.740016	T   T   T
 0.205938  0.411876  0.769986	T   T   T
