C1 O25 Ce12
1
 7.707464  0.000000  0.000000
-3.853732  6.674860  0.000000
 0.000000  0.000000 28.319031
Ce O C O
12 24 1 1
Selective Dynamics
Direct
 0.165874  0.334876  0.388149	T   T   T
 0.165979  0.835007  0.387970	T   T   T
 0.665746  0.334752  0.387940	T   T   T
 0.665844  0.834947  0.387973	T   T   T
-0.001536  0.001861  0.612907	T   T   T
-0.001169  0.502390  0.612919	T   T   T
 0.499098  0.001654  0.614300	T   T   T
 0.499061  0.502598  0.612884	T   T   T
 0.332743  0.168142  0.500677	T   T   T
 0.332663  0.668936  0.500606	T   T   T
 0.831956  0.168242  0.500622	T   T   T
 0.832411  0.668407  0.500417	T   T   T
 0.165809  0.334973  0.471591	T   T   T
 0.165281  0.834839  0.471680	T   T   T
 0.666023  0.335543  0.471660	T   T   T
 0.666172  0.834718  0.471668	T   T   T
-0.000678  0.001751  0.359723	T   T   T
-0.000702  0.501388  0.359667	T   T   T
 0.499172  0.001537  0.359535	T   T   T
 0.498919  0.501350  0.359683	T   T   T
 0.333675  0.167670  0.584889	T   T   T
 0.332802  0.670258  0.584818	T   T   T
 0.830527  0.168240  0.584842	T   T   T
 0.832002  0.668743  0.583810	T   T   T
-0.000353  0.002986  0.529598	T   T   T
-0.000431  0.501354  0.529558	T   T   T
 0.499173  0.001731  0.529263	T   T   T
 0.497867  0.501213  0.529547	T   T   T
 0.332738  0.167963  0.416760	T   T   T
 0.332843  0.668792  0.416722	T   T   T
 0.831994  0.167933  0.416724	T   T   T
 0.832521  0.668196  0.416502	T   T   T
 0.165730  0.335023  0.641414	T   T   T
 0.160367  0.832839  0.641624	T   T   T
 0.668627  0.341336  0.641773	T   T   T
 0.666748  0.834184  0.641532	T   T   T
 0.473862  0.052657  0.715004	T   T   T
 0.449530  0.103192  0.751167	T   T   T
