C1 O25 Ce12
1
 7.707464  0.000000  0.000000
-3.853732  6.674860  0.000000
 0.000000  0.000000 28.319031
Ce O C O
12 24 1 1
Selective Dynamics
Direct
 0.166677  0.333985  0.388026	T   T   T
 0.166765  0.834016  0.387834	T   T   T
 0.666653  0.333927  0.387866	T   T   T
 0.666613  0.834029  0.387833	T   T   T
-0.000090  0.000518  0.612699	T   T   T
 0.000026  0.500920  0.612695	T   T   T
 0.499926  0.000291  0.614137	T   T   T
 0.500244  0.500965  0.612675	T   T   T
 0.333555  0.166900  0.500476	T   T   T
 0.333511  0.667702  0.500443	T   T   T
 0.832683  0.166898  0.500474	T   T   T
 0.833323  0.667277  0.500237	T   T   T
 0.166641  0.333680  0.471458	T   T   T
 0.166135  0.833858  0.471533	T   T   T
 0.666680  0.334273  0.471609	T   T   T
 0.666960  0.833716  0.471494	T   T   T
 0.000052  0.000871  0.359634	T   T   T
 0.000211  0.500686  0.359623	T   T   T
 0.500004  0.000539  0.359466	T   T   T
 0.499847  0.500759  0.359637	T   T   T
 0.334415  0.166440  0.584621	T   T   T
 0.333700  0.668602  0.584691	T   T   T
 0.831602  0.166766  0.584682	T   T   T
 0.833633  0.667392  0.583618	T   T   T
 0.000370  0.001660  0.529364	T   T   T
 0.000539  0.500086  0.529275	T   T   T
 0.499867  0.000149  0.529161	T   T   T
 0.499007  0.500314  0.529343	T   T   T
 0.333684  0.167132  0.416548	T   T   T
 0.333402  0.667648  0.416628	T   T   T
 0.832867  0.167263  0.416596	T   T   T
 0.833312  0.667148  0.416449	T   T   T
 0.166647  0.333552  0.641276	T   T   T
 0.162701  0.832153  0.641519	T   T   T
 0.669043  0.339079  0.641544	T   T   T
 0.668408  0.832068  0.641341	T   T   T
 0.500655  0.029952  0.715993	T   T   T
 0.499731  0.057892  0.755617	T   T   T
