C1 O25 Ce12
1
 7.707464  0.000000  0.000000
-3.853732  6.674860  0.000000
 0.000000  0.000000 28.319031
Ce O C O
12 24 1 1
Selective Dynamics
Direct
 0.167219  0.333809  0.387815	T   T   T
 0.167225  0.834086  0.387807	T   T   T
 0.667249  0.333939  0.387988	T   T   T
 0.667442  0.834062  0.387813	T   T   T
 0.000485  0.000471  0.614059	T   T   T
 0.000932  0.500874  0.612630	T   T   T
 0.500586  0.000417  0.612623	T   T   T
 0.500699  0.500880  0.612603	T   T   T
 0.333555  0.167059  0.500479	T   T   T
 0.333927  0.667232  0.500225	T   T   T
 0.834285  0.167060  0.500482	T   T   T
 0.834306  0.667828  0.500469	T   T   T
 0.167705  0.334490  0.471524	T   T   T
 0.167850  0.833870  0.471474	T   T   T
 0.667077  0.333666  0.471404	T   T   T
 0.666705  0.833759  0.471450	T   T   T
 0.000544  0.000556  0.359466	T   T   T
 0.000228  0.500509  0.359653	T   T   T
 0.500802  0.000977  0.359658	T   T   T
 0.500871  0.500547  0.359658	T   T   T
 0.332226  0.166654  0.584537	T   T   T
 0.333422  0.666886  0.583577	T   T   T
 0.835460  0.166990  0.584607	T   T   T
 0.835138  0.668912  0.584663	T   T   T
 0.000508  0.000405  0.529134	T   T   T
-0.000627  0.500152  0.529238	T   T   T
 0.501351  0.001641  0.529369	T   T   T
 0.501597  0.500407  0.529308	T   T   T
 0.333432  0.167086  0.416604	T   T   T
 0.333898  0.667222  0.416361	T   T   T
 0.834298  0.167144  0.416629	T   T   T
 0.834208  0.667717  0.416672	T   T   T
 0.169881  0.338401  0.641612	T   T   T
 0.169681  0.832494  0.641463	T   T   T
 0.667111  0.333631  0.641165	T   T   T
 0.663415  0.832112  0.641175	T   T   T
 0.027120  0.028472  0.716632	T   T   T
 0.059302  0.058696  0.756092	T   T   T
