C1 O25 Ce12
1
 7.707464  0.000000  0.000000
-3.853732  6.674860  0.000000
 0.000000  0.000000 28.319031
Ce O C O
12 24 1 1
Selective Dynamics
Direct
 0.166225  0.333775  0.386795	T   T   T
 0.166177  0.833736  0.386892	T   T   T
 0.666264  0.333823  0.386892	T   T   T
 0.666249  0.833751  0.386868	T   T   T
-0.000734  0.001230  0.611904	T   T   T
-0.000861  0.500861  0.611882	T   T   T
 0.499156  0.000844  0.611970	T   T   T
 0.498770  0.500734  0.611904	T   T   T
 0.332675  0.167325  0.499378	T   T   T
 0.332686  0.667436  0.499341	T   T   T
 0.832564  0.167314  0.499341	T   T   T
 0.832556  0.667444  0.499465	T   T   T
 0.165872  0.334128  0.470349	T   T   T
 0.166178  0.833864  0.470499	T   T   T
 0.666136  0.333822  0.470499	T   T   T
 0.665903  0.834097  0.470523	T   T   T
-0.000097  0.000745  0.358635	T   T   T
-0.000285  0.500285  0.358685	T   T   T
 0.499551  0.000449  0.358556	T   T   T
 0.499255  0.500097  0.358635	T   T   T
 0.331877  0.168123  0.583458	T   T   T
 0.332392  0.666274  0.583273	T   T   T
 0.833726  0.167608  0.583273	T   T   T
 0.831892  0.668108  0.583209	T   T   T
-0.000557  0.000846  0.528281	T   T   T
-0.000926  0.500926  0.528263	T   T   T
 0.499146  0.000854  0.528558	T   T   T
 0.499154  0.500557  0.528281	T   T   T
 0.332972  0.167028  0.415559	T   T   T
 0.333213  0.667510  0.415513	T   T   T
 0.832490  0.166787  0.415513	T   T   T
 0.832747  0.667253  0.415581	T   T   T
 0.165063  0.334937  0.640678	T   T   T
 0.166036  0.833777  0.639746	T   T   T
 0.666223  0.333964  0.639746	T   T   T
 0.665355  0.834645  0.640192	T   T   T
 0.264125  0.235875  0.740301	T   T   T
 0.205277  0.294723  0.769678	T   T   T
