C1 O25 Ce12
1
 7.707464  0.000000  0.000000
-3.853732  6.674860  0.000000
 0.000000  0.000000 28.319031
Ce O C O
12 24 1 1
Selective Dynamics
Direct
 0.166633  0.333465  0.387183	T   T   T
 0.166665  0.833701  0.387222	T   T   T
 0.666443  0.333457  0.387246	T   T   T
 0.666549  0.833568  0.387228	T   T   T
-0.000094  0.000310  0.612142	T   T   T
-0.000518  0.500201  0.611981	T   T   T
 0.499901 -0.000100  0.612212	T   T   T
 0.499757  0.500366  0.612064	T   T   T
 0.333207  0.166847  0.499741	T   T   T
 0.333106  0.666890  0.499680	T   T   T
 0.833133  0.166934  0.499696	T   T   T
 0.832999  0.667054  0.499679	T   T   T
 0.166277  0.333729  0.470673	T   T   T
 0.166469  0.833476  0.470784	T   T   T
 0.666613  0.333568  0.470801	T   T   T
 0.666473  0.833619  0.470868	T   T   T
 0.000477  0.000450  0.358932	T   T   T
-0.000149  0.500188  0.359036	T   T   T
 0.499710  0.000496  0.358952	T   T   T
 0.499726  0.499652  0.358942	T   T   T
 0.332971  0.166837  0.583781	T   T   T
 0.334670  0.667117  0.583234	T   T   T
 0.832706  0.165678  0.583366	T   T   T
 0.831838  0.667595  0.583332	T   T   T
 0.000591  0.000773  0.528560	T   T   T
-0.000450  0.500393  0.528644	T   T   T
 0.499712  0.000349  0.528661	T   T   T
 0.499334  0.499425  0.528486	T   T   T
 0.333273  0.166839  0.415962	T   T   T
 0.333730  0.667244  0.415818	T   T   T
 0.832858  0.166334  0.415831	T   T   T
 0.832972  0.667177  0.415866	T   T   T
 0.165160  0.335222  0.640228	T   T   T
 0.164813  0.829854  0.639792	T   T   T
 0.667394  0.334093  0.640290	T   T   T
 0.666507  0.834017  0.640821	T   T   T
 0.290223  0.150856  0.730597	T   T   T
 0.273879  0.175658  0.769785	T   T   T
