C1 O25 Ce12
1
 7.707464  0.000000  0.000000
-3.853732  6.674860  0.000000
 0.000000  0.000000 28.319031
Ce O C O
12 24 1 1
Selective Dynamics
Direct
 0.166019  0.331907  0.387907	T   T   T
 0.165956  0.831912  0.388046	T   T   T
 0.665889  0.331907  0.387907	T   T   T
 0.665939  0.831877  0.387921	T   T   T
-0.001292 -0.001903  0.612856	T   T   T
-0.001052  0.497896  0.612841	T   T   T
 0.499388 -0.001903  0.612856	T   T   T
 0.499406  0.498813  0.614124	T   T   T
 0.332890  0.165781  0.500574	T   T   T
 0.332800  0.664937  0.500526	T   T   T
 0.832615  0.165231  0.500356	T   T   T
 0.832136  0.664937  0.500526	T   T   T
 0.165225  0.331551  0.471598	T   T   T
 0.165923  0.831845  0.471551	T   T   T
 0.666327  0.331551  0.471598	T   T   T
 0.666357  0.832713  0.471599	T   T   T
-0.000544 -0.001585  0.359686	T   T   T
-0.000567  0.498867  0.359647	T   T   T
 0.498959 -0.001585  0.359686	T   T   T
 0.499256  0.498511  0.359567	T   T   T
 0.333724  0.167450  0.584808	T   T   T
 0.333172  0.663899  0.584736	T   T   T
 0.832221  0.164442  0.583780	T   T   T
 0.830726  0.663899  0.584736	T   T   T
-0.000145 -0.002049  0.529509	T   T   T
-0.000340  0.499319  0.529506	T   T   T
 0.498096 -0.002049  0.529509	T   T   T
 0.499350  0.498700  0.529098	T   T   T
 0.332817  0.165636  0.416713	T   T   T
 0.332832  0.665030  0.416695	T   T   T
 0.832638  0.165277  0.416449	T   T   T
 0.832196  0.665030  0.416695	T   T   T
 0.160516  0.328993  0.641632	T   T   T
 0.166103  0.832205  0.641329	T   T   T
 0.668478  0.328993  0.641632	T   T   T
 0.667048  0.834094  0.641568	T   T   T
 0.471532  0.443065  0.714886	T   T   T
 0.446291  0.392584  0.753466	T   T   T
