C1 O25 Ce12
1
 7.707464  0.000000  0.000000
-3.853732  6.674860  0.000000
 0.000000  0.000000 28.319031
Ce O C O
12 24 1 1
Selective Dynamics
Direct
 0.163857  0.335355  0.388244	T   T   T
 0.163773  0.835462  0.388085	T   T   T
 0.663488  0.335304  0.388093	T   T   T
 0.663595  0.835231  0.388145	T   T   T
-0.004176  0.001120  0.612844	T   T   T
-0.004303  0.500992  0.613044	T   T   T
 0.496879  0.000849  0.614204	T   T   T
 0.496621  0.501741  0.612986	T   T   T
 0.330111  0.167900  0.500756	T   T   T
 0.329729  0.668469  0.500806	T   T   T
 0.829337  0.167971  0.500735	T   T   T
 0.829958  0.667996  0.500633	T   T   T
 0.163369  0.334718  0.471743	T   T   T
 0.162783  0.834807  0.471715	T   T   T
 0.663175  0.335264  0.471849	T   T   T
 0.663519  0.834471  0.471777	T   T   T
-0.002287  0.002613  0.359910	T   T   T
-0.002644  0.502169  0.359857	T   T   T
 0.496908  0.002294  0.359725	T   T   T
 0.496786  0.501872  0.359829	T   T   T
 0.330597  0.166914  0.584821	T   T   T
 0.329237  0.669580  0.584964	T   T   T
 0.828032  0.167369  0.584864	T   T   T
 0.830329  0.667673  0.584041	T   T   T
-0.003302  0.002154  0.529651	T   T   T
-0.003259  0.500837  0.529592	T   T   T
 0.496460  0.001024  0.529356	T   T   T
 0.495767  0.501630  0.529799	T   T   T
 0.330633  0.168650  0.416853	T   T   T
 0.330533  0.668817  0.416859	T   T   T
 0.829775  0.168331  0.416842	T   T   T
 0.830030  0.668340  0.416706	T   T   T
 0.162628  0.334187  0.641564	T   T   T
 0.157538  0.832471  0.641916	T   T   T
 0.664288  0.337713  0.641774	T   T   T
 0.663933  0.831892  0.641167	T   T   T
 0.428126  0.016456  0.714006	T   T   T
 0.364843  0.040480  0.748364	T   T   T
