C1 O25 Ce12
1
 7.707464  0.000000  0.000000
-3.853732  6.674860  0.000000
 0.000000  0.000000 28.319031
Ce O C O
12 24 1 1
Selective Dynamics
Direct
 0.163845  0.332451  0.388020	T   T   T
 0.163831  0.832455  0.388167	T   T   T
 0.663706  0.332417  0.388031	T   T   T
 0.663703  0.832361  0.388017	T   T   T
-0.003563 -0.001394  0.612917	T   T   T
-0.003500  0.498813  0.612863	T   T   T
 0.497346 -0.000912  0.612988	T   T   T
 0.497932  0.499285  0.614213	T   T   T
 0.330782  0.166290  0.500726	T   T   T
 0.330807  0.665620  0.500719	T   T   T
 0.830478  0.165732  0.500500	T   T   T
 0.830107  0.665610  0.500606	T   T   T
 0.163337  0.332295  0.471756	T   T   T
 0.164126  0.832516  0.471629	T   T   T
 0.664147  0.332041  0.471684	T   T   T
 0.664016  0.833142  0.471712	T   T   T
-0.002784 -0.001103  0.359770	T   T   T
-0.002820  0.499296  0.359786	T   T   T
 0.496908 -0.001020  0.359747	T   T   T
 0.497108  0.499030  0.359644	T   T   T
 0.330832  0.167664  0.584872	T   T   T
 0.331158  0.664373  0.584811	T   T   T
 0.830439  0.165282  0.583822	T   T   T
 0.829168  0.665379  0.584805	T   T   T
-0.002376 -0.001573  0.529476	T   T   T
-0.002556  0.500125  0.529543	T   T   T
 0.496096 -0.001287  0.529619	T   T   T
 0.497608  0.499253  0.529258	T   T   T
 0.330660  0.166221  0.416749	T   T   T
 0.330719  0.665510  0.416728	T   T   T
 0.830510  0.165715  0.416538	T   T   T
 0.830048  0.665600  0.416780	T   T   T
 0.157713  0.329616  0.641837	T   T   T
 0.164341  0.832629  0.641432	T   T   T
 0.665812  0.330787  0.641332	T   T   T
 0.665216  0.835575  0.641602	T   T   T
 0.421282  0.471372  0.714439	T   T   T
 0.350482  0.451723  0.750978	T   T   T
