C1 O25 Ce12
1
 7.707464  0.000000  0.000000
-3.853732  6.674860  0.000000
 0.000000  0.000000 28.319031
Ce O C O
12 24 1 1
Selective Dynamics
Direct
 0.167296  0.331730  0.388015	T   T   T
 0.167401  0.831601  0.387965	T   T   T
 0.667448  0.331641  0.387962	T   T   T
 0.667335  0.831718  0.388125	T   T   T
 0.001553 -0.002658  0.612841	T   T   T
 0.000975  0.498271  0.614337	T   T   T
 0.501110 -0.002167  0.612896	T   T   T
 0.501744  0.497615  0.612839	T   T   T
 0.334383  0.164791  0.500417	T   T   T
 0.333751  0.664520  0.500645	T   T   T
 0.834721  0.165524  0.500656	T   T   T
 0.834580  0.664617  0.500541	T   T   T
 0.167896  0.331304  0.471624	T   T   T
 0.167872  0.832208  0.471648	T   T   T
 0.667005  0.331348  0.471648	T   T   T
 0.667647  0.831474  0.471519	T   T   T
 0.000392 -0.001585  0.359784	T   T   T
 0.000794  0.498229  0.359581	T   T   T
 0.500846 -0.001840  0.359675	T   T   T
 0.500617  0.498632  0.359782	T   T   T
 0.334593  0.164016  0.583763	T   T   T
 0.332502  0.663289  0.584860	T   T   T
 0.836049  0.166920  0.584890	T   T   T
 0.835457  0.663812  0.584667	T   T   T
 0.000016 -0.002260  0.529536	T   T   T
 0.001048  0.498267  0.529245	T   T   T
 0.501947 -0.002584  0.529584	T   T   T
 0.501393  0.498992  0.529567	T   T   T
 0.334226  0.164882  0.416588	T   T   T
 0.333580  0.664906  0.416784	T   T   T
 0.834180  0.165491  0.416789	T   T   T
 0.834421  0.664686  0.416707	T   T   T
 0.171378  0.328034  0.641839	T   T   T
 0.169355  0.833993  0.641567	T   T   T
 0.664070  0.329430  0.641444	T   T   T
 0.668198  0.831296  0.641384	T   T   T
 0.024250  0.446208  0.714792	T   T   T
 0.049085  0.401431  0.751610	T   T   T
