C1 O25 Ce12
1
 7.707464  0.000000  0.000000
-3.853732  6.674860  0.000000
 0.000000  0.000000 28.319031
Ce O C O
12 24 1 1
Selective Dynamics
Direct
 0.166685  0.334524  0.387959	T   T   T
 0.166785  0.834648  0.387791	T   T   T
 0.666655  0.334469  0.387767	T   T   T
 0.666706  0.834641  0.387797	T   T   T
-0.000228  0.001479  0.612720	T   T   T
 0.000107  0.502019  0.612722	T   T   T
 0.499967  0.001255  0.614294	T   T   T
 0.500172  0.502136  0.612692	T   T   T
 0.333642  0.167770  0.500493	T   T   T
 0.333630  0.668651  0.500442	T   T   T
 0.832793  0.167799  0.500475	T   T   T
 0.833344  0.668026  0.500228	T   T   T
 0.166639  0.334555  0.471453	T   T   T
 0.166043  0.834432  0.471523	T   T   T
 0.666992  0.335342  0.471492	T   T   T
 0.667056  0.834380  0.471512	T   T   T
 0.000142  0.001493  0.359518	T   T   T
 0.000138  0.500994  0.359513	T   T   T
 0.500078  0.001327  0.359403	T   T   T
 0.499700  0.501007  0.359527	T   T   T
 0.334693  0.167562  0.584681	T   T   T
 0.333939  0.669845  0.584673	T   T   T
 0.831534  0.167887  0.584685	T   T   T
 0.833225  0.668180  0.583636	T   T   T
 0.000450  0.002443  0.529411	T   T   T
 0.000637  0.501080  0.529325	T   T   T
 0.500076  0.001392  0.529210	T   T   T
 0.498956  0.501104  0.529350	T   T   T
 0.333528  0.167600  0.416556	T   T   T
 0.333585  0.668441  0.416573	T   T   T
 0.832891  0.167631  0.416563	T   T   T
 0.833413  0.667967  0.416317	T   T   T
 0.166644  0.334495  0.641237	T   T   T
 0.162771  0.833224  0.641413	T   T   T
 0.669128  0.340205  0.641710	T   T   T
 0.668037  0.833702  0.641309	T   T   T
 0.499683  0.055841  0.717419	T   T   T
 0.499765  0.112676  0.754726	T   T   T
