C1 O25 Ce12
1
 7.707464  0.000000  0.000000
-3.853732  6.674860  0.000000
 0.000000  0.000000 28.319031
Ce O C O
12 24 1 1
Selective Dynamics
Direct
 0.169259  0.334942  0.388088	T   T   T
 0.169282  0.835013  0.388064	T   T   T
 0.669278  0.334939  0.388251	T   T   T
 0.669366  0.835027  0.388052	T   T   T
 0.002027  0.001326  0.614287	T   T   T
 0.003069  0.502166  0.612887	T   T   T
 0.502901  0.001754  0.612809	T   T   T
 0.503062  0.502235  0.612808	T   T   T
 0.335315  0.168042  0.500680	T   T   T
 0.336028  0.668417  0.500456	T   T   T
 0.836404  0.168187  0.500638	T   T   T
 0.836339  0.668945  0.500604	T   T   T
 0.169642  0.335488  0.471729	T   T   T
 0.169716  0.834943  0.471707	T   T   T
 0.669179  0.334931  0.471592	T   T   T
 0.668776  0.834765  0.471655	T   T   T
 0.002606  0.001670  0.359759	T   T   T
 0.002326  0.501502  0.359871	T   T   T
 0.502853  0.001942  0.359806	T   T   T
 0.502832  0.501605  0.359884	T   T   T
 0.333882  0.167484  0.584736	T   T   T
 0.335714  0.668358  0.583820	T   T   T
 0.837584  0.168406  0.584812	T   T   T
 0.837299  0.669884  0.584771	T   T   T
 0.002159  0.001364  0.529310	T   T   T
 0.001903  0.501406  0.529450	T   T   T
 0.503316  0.002640  0.529567	T   T   T
 0.503257  0.501545  0.529545	T   T   T
 0.335394  0.168043  0.416799	T   T   T
 0.335828  0.668267  0.416660	T   T   T
 0.836336  0.168224  0.416824	T   T   T
 0.836338  0.668782  0.416816	T   T   T
 0.172520  0.340081  0.641743	T   T   T
 0.171940  0.833556  0.641602	T   T   T
 0.669001  0.334990  0.641386	T   T   T
 0.666624  0.833840  0.641240	T   T   T
 0.078245  0.053569  0.714759	T   T   T
 0.155734  0.103943  0.750650	T   T   T
