C1 O25 Ce12
1
 7.707464  0.000000  0.000000
-3.853732  6.674860  0.000000
 0.000000  0.000000 28.319031
Ce O C O
12 24 1 1
Selective Dynamics
Direct
 0.167051  0.333525  0.386666	T   T   T
 0.167270  0.833635  0.386846	T   T   T
 0.667146  0.333481  0.386821	T   T   T
 0.667146  0.833664  0.386821	T   T   T
 0.001891  0.000923  0.612032	T   T   T
 0.001891  0.500967  0.612032	T   T   T
 0.501760  0.000880  0.611951	T   T   T
 0.502079  0.501040  0.611870	T   T   T
 0.334733  0.167429  0.499449	T   T   T
 0.334733  0.667306  0.499449	T   T   T
 0.834930  0.167466  0.499430	T   T   T
 0.835149  0.667575  0.499244	T   T   T
 0.168171  0.334085  0.470221	T   T   T
 0.167487  0.833743  0.470607	T   T   T
 0.668168  0.334621  0.470529	T   T   T
 0.668168  0.833545  0.470529	T   T   T
 0.000198  0.000577  0.358401	T   T   T
 0.000198  0.499620  0.358401	T   T   T
 0.500647  0.000324  0.358429	T   T   T
 0.500088  0.500044  0.358485	T   T   T
 0.334586  0.166720  0.583271	T   T   T
 0.334586  0.667866  0.583271	T   T   T
 0.835940  0.167971  0.583485	T   T   T
 0.836492  0.668247  0.582976	T   T   T
 0.001885  0.002028  0.528202	T   T   T
 0.001885  0.499857  0.528202	T   T   T
 0.502028  0.001014  0.528331	T   T   T
 0.500919  0.500460  0.528437	T   T   T
 0.334039  0.166517  0.415473	T   T   T
 0.334039  0.667523  0.415473	T   T   T
 0.833492  0.166746  0.415589	T   T   T
 0.834364  0.667182  0.415265	T   T   T
 0.171132  0.335566  0.640598	T   T   T
 0.168712  0.834356  0.640566	T   T   T
 0.668734  0.335664  0.640013	T   T   T
 0.668734  0.833070  0.640013	T   T   T
-0.026982  0.236509  0.740342	T   T   T
 0.087623  0.293812  0.770394	T   T   T
