C1 O25 Ce12
1
 7.707464  0.000000  0.000000
-3.853732  6.674860  0.000000
 0.000000  0.000000 28.319031
Ce O C O
12 24 1 1
Selective Dynamics
Direct
 0.164293  0.331748  0.387944	T   T   T
 0.164200  0.831713  0.388112	T   T   T
 0.664117  0.331730  0.387950	T   T   T
 0.664128  0.831614  0.387952	T   T   T
-0.003870 -0.002577  0.612837	T   T   T
-0.003821  0.497567  0.612858	T   T   T
 0.496865 -0.002139  0.612865	T   T   T
 0.497462  0.498304  0.614302	T   T   T
 0.330710  0.165362  0.500634	T   T   T
 0.330691  0.664453  0.500627	T   T   T
 0.830493  0.164799  0.500402	T   T   T
 0.829925  0.664502  0.500558	T   T   T
 0.163384  0.331253  0.471667	T   T   T
 0.164075  0.831591  0.471531	T   T   T
 0.664054  0.331045  0.471616	T   T   T
 0.664066  0.832159  0.471623	T   T   T
-0.002364 -0.001808  0.359711	T   T   T
-0.002387  0.498676  0.359720	T   T   T
 0.497212 -0.001755  0.359731	T   T   T
 0.497525  0.498360  0.359551	T   T   T
 0.330605  0.166661  0.584808	T   T   T
 0.330489  0.662910  0.584804	T   T   T
 0.830361  0.164603  0.583796	T   T   T
 0.828654  0.663729  0.584760	T   T   T
-0.002586 -0.002681  0.529462	T   T   T
-0.002622  0.499060  0.529466	T   T   T
 0.495891 -0.002516  0.529599	T   T   T
 0.497331  0.498223  0.529252	T   T   T
 0.330903  0.165501  0.416712	T   T   T
 0.330931  0.664614  0.416705	T   T   T
 0.830880  0.165036  0.416516	T   T   T
 0.830271  0.664752  0.416725	T   T   T
 0.157577  0.328192  0.641927	T   T   T
 0.163632  0.831332  0.641365	T   T   T
 0.664964  0.329148  0.641419	T   T   T
 0.664793  0.834251  0.641386	T   T   T
 0.422444  0.448366  0.715311	T   T   T
 0.351388  0.400001  0.751911	T   T   T
