C1 O25 Ce12
1
 7.707464  0.000000  0.000000
-3.853732  6.674860  0.000000
 0.000000  0.000000 28.319031
Ce O C O
12 24 1 1
Selective Dynamics
Direct
 0.170072  0.333196  0.388119	T   T   T
 0.170137  0.833051  0.388045	T   T   T
 0.670272  0.333214  0.388032	T   T   T
 0.670117  0.833189  0.388197	T   T   T
 0.004683 -0.002492  0.612971	T   T   T
 0.003225  0.498154  0.614194	T   T   T
 0.504225 -0.002385  0.612955	T   T   T
 0.504634  0.497193  0.612961	T   T   T
 0.337190  0.165216  0.500577	T   T   T
 0.336346  0.664798  0.500787	T   T   T
 0.837342  0.165788  0.500780	T   T   T
 0.837165  0.665113  0.500679	T   T   T
 0.170662  0.331901  0.471801	T   T   T
 0.170751  0.833135  0.471749	T   T   T
 0.669406  0.331793  0.471725	T   T   T
 0.670402  0.832260  0.471616	T   T   T
 0.003067 -0.000251  0.359940	T   T   T
 0.003511  0.499932  0.359782	T   T   T
 0.503666 -0.000178  0.359803	T   T   T
 0.503695  0.500377  0.359962	T   T   T
 0.338179  0.164290  0.583869	T   T   T
 0.334731  0.662504  0.585069	T   T   T
 0.838877  0.166525  0.585030	T   T   T
 0.838180  0.663458  0.584765	T   T   T
 0.002908 -0.001963  0.529633	T   T   T
 0.003495  0.498438  0.529168	T   T   T
 0.504630 -0.002818  0.529618	T   T   T
 0.504197  0.499439  0.529611	T   T   T
 0.336902  0.166319  0.416599	T   T   T
 0.336160  0.665987  0.416850	T   T   T
 0.837194  0.167039  0.416850	T   T   T
 0.837228  0.666007  0.416786	T   T   T
 0.174289  0.326788  0.641929	T   T   T
 0.172621  0.834867  0.641418	T   T   T
 0.668275  0.329427  0.641570	T   T   T
 0.670573  0.830123  0.641372	T   T   T
 0.068311  0.479612  0.713817	T   T   T
 0.126015  0.459841  0.749487	T   T   T
