C1 O25 Ce12
1
 7.707464  0.000000  0.000000
-3.853732  6.674860  0.000000
 0.000000  0.000000 28.319031
Ce O C O
12 24 1 1
Selective Dynamics
Direct
 0.169558  0.333569  0.387870	T   T   T
 0.169460  0.833782  0.387912	T   T   T
 0.669427  0.333701  0.388026	T   T   T
 0.669590  0.833650  0.387891	T   T   T
 0.002559 -0.000334  0.614355	T   T   T
 0.003407  0.499360  0.612782	T   T   T
 0.503569 -0.000626  0.612738	T   T   T
 0.503214  0.499680  0.612819	T   T   T
 0.335543  0.166243  0.500600	T   T   T
 0.336228  0.666645  0.500341	T   T   T
 0.836541  0.166435  0.500491	T   T   T
 0.836614  0.667283  0.500589	T   T   T
 0.169840  0.333993  0.471586	T   T   T
 0.169914  0.833157  0.471576	T   T   T
 0.669497  0.333300  0.471522	T   T   T
 0.668833  0.833103  0.471530	T   T   T
 0.002760  0.000334  0.359508	T   T   T
 0.002834  0.500499  0.359651	T   T   T
 0.502867  0.000374  0.359678	T   T   T
 0.502945  0.500506  0.359637	T   T   T
 0.334248  0.164892  0.584780	T   T   T
 0.336414  0.666143  0.583727	T   T   T
 0.837384  0.165992  0.584677	T   T   T
 0.837827  0.667973  0.584815	T   T   T
 0.002655 -0.000157  0.529250	T   T   T
 0.002080  0.499486  0.529464	T   T   T
 0.503413  0.000814  0.529483	T   T   T
 0.503585  0.499234  0.529485	T   T   T
 0.335374  0.166750  0.416669	T   T   T
 0.336283  0.666846  0.416460	T   T   T
 0.836636  0.166456  0.416598	T   T   T
 0.836346  0.667750  0.416689	T   T   T
 0.171743  0.336774  0.641496	T   T   T
 0.172800  0.830008  0.641695	T   T   T
 0.669461  0.332608  0.641250	T   T   T
 0.667061  0.831679  0.641367	T   T   T
 0.076247 -0.000135  0.716832	T   T   T
 0.148576  0.002233  0.752278	T   T   T
