C1 O25 Ce12
1
 7.707464  0.000000  0.000000
-3.853732  6.674860  0.000000
 0.000000  0.000000 28.319031
Ce O C O
12 24 1 1
Selective Dynamics
Direct
 0.166913  0.333087  0.386967	T   T   T
 0.167015  0.833022  0.386987	T   T   T
 0.666978  0.332985  0.386987	T   T   T
 0.666923  0.833077  0.387079	T   T   T
 0.001425 -0.001624  0.612021	T   T   T
 0.001220  0.498780  0.613033	T   T   T
 0.501255 -0.001255  0.612044	T   T   T
 0.501624  0.498575  0.612021	T   T   T
 0.334092  0.165908  0.499517	T   T   T
 0.333720  0.665547  0.499655	T   T   T
 0.834453  0.166280  0.499655	T   T   T
 0.834326  0.665674  0.499604	T   T   T
 0.167505  0.332495  0.470544	T   T   T
 0.167149  0.832726  0.470739	T   T   T
 0.667274  0.332851  0.470739	T   T   T
 0.667552  0.832448  0.470686	T   T   T
 0.000143 -0.000056  0.358723	T   T   T
 0.000413  0.499587  0.358587	T   T   T
 0.500343 -0.000343  0.358660	T   T   T
 0.500056  0.499857  0.358723	T   T   T
 0.334642  0.165358  0.583217	T   T   T
 0.333439  0.664777  0.583798	T   T   T
 0.835223  0.166561  0.583798	T   T   T
 0.835106  0.664894  0.583530	T   T   T
 0.000733 -0.000803  0.528538	T   T   T
 0.001139  0.498861  0.528651	T   T   T
 0.501141 -0.001141  0.528613	T   T   T
 0.500803  0.499267  0.528538	T   T   T
 0.333900  0.166100  0.415644	T   T   T
 0.333529  0.666474  0.415734	T   T   T
 0.833526  0.166471  0.415734	T   T   T
 0.833931  0.666069  0.415619	T   T   T
 0.169462  0.330538  0.640766	T   T   T
 0.168624  0.833128  0.640424	T   T   T
 0.666872  0.331376  0.640424	T   T   T
 0.668075  0.831925  0.640458	T   T   T
 0.067936  0.432064  0.735499	T   T   T
 0.123763  0.376237  0.766162	T   T   T
