C1 O25 Ce12
1
 7.707464  0.000000  0.000000
-3.853732  6.674860  0.000000
 0.000000  0.000000 28.319031
Ce O C O
12 24 1 1
Selective Dynamics
Direct
 0.165186  0.334430  0.388230	T   T   T
 0.165261  0.834454  0.388008	T   T   T
 0.665076  0.334332  0.388075	T   T   T
 0.665084  0.834310  0.388074	T   T   T
-0.002151  0.000747  0.612788	T   T   T
-0.002263  0.500878  0.612856	T   T   T
 0.498288  0.000529  0.614251	T   T   T
 0.498478  0.501344  0.612764	T   T   T
 0.331910  0.167218  0.500668	T   T   T
 0.331725  0.667938  0.500624	T   T   T
 0.830908  0.167033  0.500632	T   T   T
 0.831779  0.667503  0.500414	T   T   T
 0.164985  0.334232  0.471655	T   T   T
 0.164176  0.833663  0.471592	T   T   T
 0.665363  0.334880  0.471710	T   T   T
 0.665350  0.833772  0.471654	T   T   T
-0.001140  0.001470  0.359866	T   T   T
-0.001253  0.501020  0.359876	T   T   T
 0.498205  0.001100  0.359698	T   T   T
 0.498166  0.500942  0.359802	T   T   T
 0.332461  0.166258  0.584701	T   T   T
 0.331441  0.669249  0.584757	T   T   T
 0.829600  0.166686  0.584736	T   T   T
 0.832257  0.667925  0.583803	T   T   T
-0.001237  0.001813  0.529483	T   T   T
-0.001477  0.500027  0.529514	T   T   T
 0.498014  0.000476  0.529227	T   T   T
 0.497530  0.500699  0.529598	T   T   T
 0.332217  0.167652  0.416896	T   T   T
 0.332262  0.668193  0.416811	T   T   T
 0.831124  0.167278  0.416796	T   T   T
 0.831572  0.667567  0.416519	T   T   T
 0.165036  0.334031  0.641197	T   T   T
 0.159791  0.832391  0.641854	T   T   T
 0.666996  0.339131  0.641446	T   T   T
 0.665705  0.832478  0.641301	T   T   T
 0.445613  0.026078  0.715047	T   T   T
 0.395740  0.051384  0.751191	T   T   T
