C1 O25 Ce12
1
 7.707464  0.000000  0.000000
-3.853732  6.674860  0.000000
 0.000000  0.000000 28.319031
Ce O C O
12 24 1 1
Selective Dynamics
Direct
 0.165601  0.333056  0.386830	T   T   T
 0.165402  0.833048  0.386895	T   T   T
 0.665259  0.333048  0.386770	T   T   T
 0.665343  0.832909  0.386748	T   T   T
-0.001209  0.000456  0.611804	T   T   T
-0.001123  0.500477  0.611839	T   T   T
 0.499117  0.000699  0.612494	T   T   T
 0.499040  0.500434  0.611856	T   T   T
 0.332365  0.166536  0.499433	T   T   T
 0.332238  0.666956  0.499440	T   T   T
 0.832170  0.166920  0.499374	T   T   T
 0.832318  0.666695  0.499321	T   T   T
 0.165587  0.333418  0.470364	T   T   T
 0.165548  0.833314  0.470519	T   T   T
 0.665669  0.333422  0.470389	T   T   T
 0.665566  0.833340  0.470438	T   T   T
-0.001249 -0.000497  0.358557	T   T   T
-0.001176  0.499858  0.358585	T   T   T
 0.498552 -0.000487  0.358477	T   T   T
 0.498628  0.499585  0.358356	T   T   T
 0.332404  0.166537  0.583426	T   T   T
 0.332463  0.667515  0.583373	T   T   T
 0.832120  0.167077  0.583450	T   T   T
 0.832353  0.667256  0.582996	T   T   T
-0.001099  0.000757  0.528292	T   T   T
-0.000968  0.499964  0.528287	T   T   T
 0.499486  0.000468  0.528459	T   T   T
 0.498556  0.499906  0.528277	T   T   T
 0.332306  0.166507  0.415496	T   T   T
 0.332491  0.666591  0.415514	T   T   T
 0.831874  0.166241  0.415473	T   T   T
 0.831751  0.666359  0.415482	T   T   T
 0.165895  0.333768  0.640313	T   T   T
 0.164124  0.832879  0.640389	T   T   T
 0.666400  0.335210  0.640137	T   T   T
 0.665994  0.833518  0.640240	T   T   T
 0.360346  0.008287  0.742430	T   T   T
 0.235413 -0.012032  0.767594	T   T   T
