C1 O25 Ce12
1
 7.707464  0.000000  0.000000
-3.853732  6.674860  0.000000
 0.000000  0.000000 28.319031
Ce O C O
12 24 1 1
Selective Dynamics
Direct
 0.165995  0.333292  0.388033	T   T   T
 0.166159  0.833384  0.387854	T   T   T
 0.665867  0.333092  0.387857	T   T   T
 0.665872  0.833373  0.387874	T   T   T
-0.000820 -0.000113  0.612660	T   T   T
-0.000832  0.500059  0.612687	T   T   T
 0.499541  0.000015  0.614073	T   T   T
 0.499616  0.500187  0.612687	T   T   T
 0.332898  0.166560  0.500482	T   T   T
 0.332935  0.667212  0.500482	T   T   T
 0.832083  0.166440  0.500469	T   T   T
 0.832736  0.666705  0.500203	T   T   T
 0.166387  0.333437  0.471435	T   T   T
 0.165418  0.833204  0.471544	T   T   T
 0.666038  0.333999  0.471488	T   T   T
 0.666159  0.832887  0.471467	T   T   T
-0.000563  0.000351  0.359697	T   T   T
-0.000542  0.499674  0.359692	T   T   T
 0.499373 -0.000033  0.359501	T   T   T
 0.498918  0.499765  0.359703	T   T   T
 0.333207  0.165594  0.584556	T   T   T
 0.332799  0.668391  0.584644	T   T   T
 0.831156  0.166372  0.584736	T   T   T
 0.833376  0.666560  0.583579	T   T   T
-0.000471  0.001324  0.529366	T   T   T
-0.000143  0.499066  0.529281	T   T   T
 0.499517  0.000127  0.529164	T   T   T
 0.498373  0.499781  0.529451	T   T   T
 0.332860  0.166300  0.416660	T   T   T
 0.332804  0.667167  0.416686	T   T   T
 0.832184  0.166445  0.416743	T   T   T
 0.832728  0.666662  0.416342	T   T   T
 0.166533  0.333581  0.641177	T   T   T
 0.161552  0.831554  0.641705	T   T   T
 0.667443  0.337333  0.641527	T   T   T
 0.668020  0.831094  0.641160	T   T   T
 0.472504 -0.001714  0.716041	T   T   T
 0.441205  0.000878  0.755410	T   T   T
