C1 O25 Ce12
1
 7.707464  0.000000  0.000000
-3.853732  6.674860  0.000000
 0.000000  0.000000 28.319031
Ce O C O
12 24 1 1
Selective Dynamics
Direct
 0.167099  0.333476  0.387082	T   T   T
 0.167105  0.833851  0.387065	T   T   T
 0.666783  0.333497  0.387012	T   T   T
 0.667101  0.833633  0.387074	T   T   T
-0.000112 -0.000197  0.612233	T   T   T
 0.000657  0.500165  0.612082	T   T   T
 0.500473  0.000401  0.612147	T   T   T
 0.500707  0.500372  0.612094	T   T   T
 0.333869  0.166957  0.499654	T   T   T
 0.334257  0.667195  0.499630	T   T   T
 0.833985  0.167186  0.499630	T   T   T
 0.833969  0.666874  0.499622	T   T   T
 0.166999  0.333821  0.470690	T   T   T
 0.167042  0.833343  0.470675	T   T   T
 0.667969  0.334041  0.470514	T   T   T
 0.667434  0.833739  0.470837	T   T   T
 0.001132  0.000719  0.358690	T   T   T
 0.000342  0.500233  0.358815	T   T   T
 0.499833  0.000690  0.358648	T   T   T
 0.499783  0.499364  0.358667	T   T   T
 0.333975  0.166842  0.583781	T   T   T
 0.336595  0.668016  0.583304	T   T   T
 0.832745  0.165696  0.583407	T   T   T
 0.832144  0.666837  0.583294	T   T   T
 0.000619  0.000323  0.528697	T   T   T
 0.001061  0.500578  0.528683	T   T   T
 0.500517  0.001066  0.528491	T   T   T
 0.500395  0.499433  0.528427	T   T   T
 0.333657  0.166904  0.415850	T   T   T
 0.334579  0.667450  0.415677	T   T   T
 0.833389  0.166173  0.415651	T   T   T
 0.833491  0.667422  0.415640	T   T   T
 0.166891  0.334417  0.640298	T   T   T
 0.165225  0.829574  0.639756	T   T   T
 0.669659  0.334912  0.640507	T   T   T
 0.668216  0.834357  0.640870	T   T   T
 0.354627  0.147057  0.732124	T   T   T
 0.403564  0.176917  0.770798	T   T   T
