C1 O25 Ce12
1
 7.707464  0.000000  0.000000
-3.853732  6.674860  0.000000
 0.000000  0.000000 28.319031
Ce O C O
12 24 1 1
Selective Dynamics
Direct
 0.165207  0.332042  0.386904	T   T   T
 0.165169  0.832258  0.386938	T   T   T
 0.665196  0.332186  0.387034	T   T   T
 0.665319  0.832179  0.386917	T   T   T
-0.000315 -0.001454  0.613088	T   T   T
 0.000706  0.498847  0.611843	T   T   T
 0.500591 -0.001460  0.611846	T   T   T
 0.500493  0.499173  0.611820	T   T   T
 0.332139  0.165094  0.499581	T   T   T
 0.332776  0.665446  0.499348	T   T   T
 0.832979  0.165218  0.499496	T   T   T
 0.833006  0.665882  0.499520	T   T   T
 0.166149  0.332829  0.470574	T   T   T
 0.166217  0.831687  0.470547	T   T   T
 0.665953  0.332101  0.470417	T   T   T
 0.665066  0.831721  0.470583	T   T   T
-0.001461 -0.001199  0.358517	T   T   T
-0.001935  0.498819  0.358715	T   T   T
 0.498477 -0.000742  0.358697	T   T   T
 0.498636  0.498673  0.358637	T   T   T
 0.331209  0.164118  0.583808	T   T   T
 0.333976  0.665818  0.582739	T   T   T
 0.834566  0.164638  0.583676	T   T   T
 0.834752  0.667226  0.583756	T   T   T
-0.000530 -0.001439  0.528024	T   T   T
-0.001296  0.498318  0.528438	T   T   T
 0.500154 -0.000033  0.528422	T   T   T
 0.500199  0.498036  0.528460	T   T   T
 0.331429  0.165354  0.415707	T   T   T
 0.332120  0.665424  0.415441	T   T   T
 0.832365  0.165127  0.415625	T   T   T
 0.832183  0.666120  0.415680	T   T   T
 0.169679  0.337196  0.640517	T   T   T
 0.169878  0.829532  0.640811	T   T   T
 0.666878  0.331861  0.640333	T   T   T
 0.664301  0.830652  0.640509	T   T   T
 0.055809  0.014129  0.713344	T   T   T
 0.110128  0.028622  0.751477	T   T   T
