C1 O25 Ce12
1
 7.707464  0.000000  0.000000
-3.853732  6.674860  0.000000
 0.000000  0.000000 28.319031
Ce O C O
12 24 1 1
Selective Dynamics
Direct
 0.167152  0.333178  0.387811	T   T   T
 0.167127  0.833347  0.387802	T   T   T
 0.667152  0.333284  0.388046	T   T   T
 0.667252  0.833302  0.387832	T   T   T
 0.000737  0.000016  0.614143	T   T   T
 0.000679  0.499930  0.612514	T   T   T
 0.500787 -0.000089  0.612497	T   T   T
 0.500526  0.500336  0.612549	T   T   T
 0.333479  0.166522  0.500411	T   T   T
 0.333834  0.666696  0.500091	T   T   T
 0.834290  0.166367  0.500393	T   T   T
 0.834178  0.667258  0.500407	T   T   T
 0.167806  0.334043  0.471381	T   T   T
 0.167648  0.833126  0.471402	T   T   T
 0.666996  0.333435  0.471372	T   T   T
 0.666538  0.832870  0.471371	T   T   T
 0.000480 -0.000049  0.359487	T   T   T
 0.000150  0.499761  0.359648	T   T   T
 0.500643  0.000255  0.359654	T   T   T
 0.500624  0.499782  0.359665	T   T   T
 0.332557  0.165746  0.584446	T   T   T
 0.333292  0.666652  0.583392	T   T   T
 0.835058  0.166286  0.584582	T   T   T
 0.835337  0.668227  0.584507	T   T   T
 0.000589  0.000087  0.529171	T   T   T
-0.000704  0.499163  0.529191	T   T   T
 0.501544  0.001096  0.529263	T   T   T
 0.501128  0.499911  0.529358	T   T   T
 0.333313  0.166342  0.416603	T   T   T
 0.333829  0.666632  0.416319	T   T   T
 0.834119  0.166374  0.416672	T   T   T
 0.834148  0.667174  0.416622	T   T   T
 0.169611  0.336991  0.641325	T   T   T
 0.169789  0.831514  0.641429	T   T   T
 0.666928  0.333555  0.640994	T   T   T
 0.663809  0.831452  0.641067	T   T   T
 0.028301 -0.001269  0.717617	T   T   T
 0.060386  0.000699  0.757081	T   T   T
