C1 O25 Ce12
1
 7.707464  0.000000  0.000000
-3.853732  6.674860  0.000000
 0.000000  0.000000 28.319031
Ce O C O
12 24 1 1
Selective Dynamics
Direct
 0.165541  0.333297  0.386979	T   T   T
 0.165526  0.833239  0.387038	T   T   T
 0.665422  0.333232  0.386965	T   T   T
 0.665391  0.833188  0.386961	T   T   T
-0.001562  0.000071  0.611963	T   T   T
-0.001783  0.500031  0.611900	T   T   T
 0.498722  0.000295  0.611960	T   T   T
 0.498657  0.500313  0.612735	T   T   T
 0.332122  0.166928  0.499583	T   T   T
 0.332197  0.666414  0.499567	T   T   T
 0.832157  0.166672  0.499460	T   T   T
 0.831882  0.666638  0.499560	T   T   T
 0.165415  0.333280  0.470632	T   T   T
 0.165480  0.833356  0.470561	T   T   T
 0.665418  0.333163  0.470620	T   T   T
 0.665475  0.833397  0.470603	T   T   T
-0.001156 -0.000082  0.358678	T   T   T
-0.001155  0.499983  0.358676	T   T   T
 0.498746 -0.000129  0.358672	T   T   T
 0.498820  0.499928  0.358596	T   T   T
 0.332099  0.167449  0.583603	T   T   T
 0.332085  0.665986  0.583596	T   T   T
 0.832026  0.167118  0.583143	T   T   T
 0.831462  0.666395  0.583542	T   T   T
-0.001149 -0.000170  0.528456	T   T   T
-0.001132  0.500475  0.528412	T   T   T
 0.498230 -0.000273  0.528504	T   T   T
 0.498881  0.500040  0.528586	T   T   T
 0.332255  0.166812  0.415646	T   T   T
 0.332234  0.666443  0.415661	T   T   T
 0.832172  0.166608  0.415604	T   T   T
 0.831913  0.666453  0.415655	T   T   T
 0.163039  0.332219  0.640613	T   T   T
 0.165505  0.833219  0.640382	T   T   T
 0.665415  0.332976  0.640391	T   T   T
 0.666226  0.835099  0.640168	T   T   T
 0.359683  0.510456  0.738283	T   T   T
 0.243294  0.489481  0.766164	T   T   T
