C1 O25 Ce12
1
 7.707464  0.000000  0.000000
-3.853732  6.674860  0.000000
 0.000000  0.000000 28.319031
Ce O C O
12 24 1 1
Selective Dynamics
Direct
 0.169910  0.337883  0.388080	T   T   T
 0.170060  0.838239  0.388042	T   T   T
 0.669863  0.337915  0.388191	T   T   T
 0.670021  0.838225  0.388038	T   T   T
 0.003622  0.004841  0.614286	T   T   T
 0.004544  0.506433  0.612900	T   T   T
 0.504316  0.005537  0.612980	T   T   T
 0.505005  0.506649  0.612873	T   T   T
 0.336443  0.171610  0.500718	T   T   T
 0.336977  0.671724  0.500493	T   T   T
 0.837353  0.171718  0.500706	T   T   T
 0.837285  0.672326  0.500601	T   T   T
 0.170418  0.338762  0.471780	T   T   T
 0.170644  0.838197  0.471715	T   T   T
 0.670225  0.338158  0.471653	T   T   T
 0.669679  0.838279  0.471720	T   T   T
 0.003248  0.004597  0.359697	T   T   T
 0.003189  0.504577  0.359872	T   T   T
 0.503337  0.004844  0.359802	T   T   T
 0.503339  0.504598  0.359850	T   T   T
 0.335347  0.171878  0.584944	T   T   T
 0.338052  0.672443  0.583864	T   T   T
 0.838937  0.171926  0.584884	T   T   T
 0.838116  0.673803  0.584833	T   T   T
 0.003563  0.004945  0.529324	T   T   T
 0.002853  0.505104  0.529561	T   T   T
 0.504271  0.006441  0.529699	T   T   T
 0.504620  0.504856  0.529504	T   T   T
 0.336258  0.171132  0.416852	T   T   T
 0.336862  0.671618  0.416642	T   T   T
 0.836798  0.171053  0.416827	T   T   T
 0.836905  0.672050  0.416792	T   T   T
 0.174244  0.345936  0.641856	T   T   T
 0.173014  0.837007  0.641423	T   T   T
 0.670724  0.338869  0.641459	T   T   T
 0.668452  0.838036  0.641597	T   T   T
 0.069209  0.088476  0.714058	T   T   T
 0.125631  0.163760  0.750003	T   T   T
