C1 O25 Ce12
1
 7.707464  0.000000  0.000000
-3.853732  6.674860  0.000000
 0.000000  0.000000 28.319031
Ce O C O
12 24 1 1
Selective Dynamics
Direct
 0.164195  0.328320  0.388142	T   T   T
 0.164107  0.828213  0.388240	T   T   T
 0.664127  0.328320  0.388142	T   T   T
 0.664128  0.828255  0.388163	T   T   T
-0.002623 -0.004869  0.613138	T   T   T
-0.002634  0.494733  0.613179	T   T   T
 0.497754 -0.004869  0.613138	T   T   T
 0.498257  0.496514  0.614185	T   T   T
 0.331110  0.162221  0.500833	T   T   T
 0.330898  0.661377  0.500759	T   T   T
 0.830844  0.161689  0.500668	T   T   T
 0.830477  0.661377  0.500759	T   T   T
 0.163711  0.327905  0.471848	T   T   T
 0.164243  0.828485  0.471752	T   T   T
 0.664194  0.327905  0.471848	T   T   T
 0.664430  0.828859  0.471835	T   T   T
-0.002651 -0.005371  0.359915	T   T   T
-0.002415  0.495169  0.359805	T   T   T
 0.497280 -0.005371  0.359915	T   T   T
 0.497558  0.495116  0.359746	T   T   T
 0.332182  0.164365  0.585006	T   T   T
 0.331150  0.660591  0.584966	T   T   T
 0.830917  0.161835  0.584053	T   T   T
 0.829439  0.660591  0.584966	T   T   T
-0.002019 -0.005616  0.529801	T   T   T
-0.001987  0.496026  0.529653	T   T   T
 0.496403 -0.005616  0.529801	T   T   T
 0.497726  0.495451  0.529392	T   T   T
 0.331002  0.162005  0.416859	T   T   T
 0.330662  0.661217  0.416939	T   T   T
 0.830994  0.161990  0.416733	T   T   T
 0.830554  0.661217  0.416939	T   T   T
 0.158821  0.325533  0.641920	T   T   T
 0.164682  0.829362  0.641688	T   T   T
 0.666713  0.325533  0.641920	T   T   T
 0.665546  0.831090  0.641595	T   T   T
 0.455699  0.411398  0.712526	T   T   T
 0.412303  0.324606  0.747348	T   T   T
