C1 O25 Ce12
1
 7.707464  0.000000  0.000000
-3.853732  6.674860  0.000000
 0.000000  0.000000 28.319031
Ce O C O
12 24 1 1
Selective Dynamics
Direct
 0.168316  0.338239  0.388078	T   T   T
 0.168331  0.838362  0.388063	T   T   T
 0.668329  0.338227  0.388159	T   T   T
 0.668419  0.838403  0.388051	T   T   T
 0.001221  0.004904  0.614291	T   T   T
 0.001527  0.506417  0.612941	T   T   T
 0.501096  0.005630  0.613016	T   T   T
 0.501558  0.506393  0.612976	T   T   T
 0.334393  0.171828  0.500709	T   T   T
 0.334832  0.672098  0.500526	T   T   T
 0.835128  0.171749  0.500752	T   T   T
 0.834980  0.672441  0.500648	T   T   T
 0.168754  0.339421  0.471787	T   T   T
 0.168914  0.838309  0.471757	T   T   T
 0.667928  0.338294  0.471577	T   T   T
 0.667206  0.838206  0.471710	T   T   T
 0.001627  0.004891  0.359610	T   T   T
 0.001266  0.504591  0.359771	T   T   T
 0.501851  0.005216  0.359741	T   T   T
 0.501755  0.504629  0.359796	T   T   T
 0.332388  0.171935  0.584830	T   T   T
 0.333967  0.672086  0.583803	T   T   T
 0.836830  0.171919  0.584957	T   T   T
 0.835456  0.673868  0.584893	T   T   T
 0.001214  0.004935  0.529286	T   T   T
-0.000006  0.504873  0.529581	T   T   T
 0.502330  0.006856  0.529766	T   T   T
 0.502422  0.505277  0.529639	T   T   T
 0.334385  0.171281  0.416831	T   T   T
 0.334918  0.671675  0.416571	T   T   T
 0.835229  0.171365  0.416891	T   T   T
 0.835316  0.672268  0.416847	T   T   T
 0.171293  0.345414  0.642090	T   T   T
 0.169701  0.837958  0.641527	T   T   T
 0.667731  0.338541  0.641415	T   T   T
 0.663603  0.837218  0.641441	T   T   T
 0.020644  0.086266  0.714068	T   T   T
 0.036261  0.162460  0.749724	T   T   T
