C1 O25 Ce12
1
 7.707464  0.000000  0.000000
-3.853732  6.674860  0.000000
 0.000000  0.000000 28.319031
Ce O C O
12 24 1 1
Selective Dynamics
Direct
 0.169163  0.334183  0.387882	T   T   T
 0.169100  0.834250  0.387921	T   T   T
 0.669122  0.334269  0.388055	T   T   T
 0.669167  0.834228  0.387880	T   T   T
 0.002189  0.000627  0.614394	T   T   T
 0.003161  0.500759  0.612962	T   T   T
 0.503037  0.000581  0.612894	T   T   T
 0.502877  0.500957  0.612902	T   T   T
 0.335509  0.167365  0.500694	T   T   T
 0.335987  0.667541  0.500430	T   T   T
 0.836419  0.167408  0.500617	T   T   T
 0.836365  0.668196  0.500653	T   T   T
 0.169824  0.335099  0.471602	T   T   T
 0.169705  0.833867  0.471649	T   T   T
 0.669258  0.334346  0.471585	T   T   T
 0.668570  0.833889  0.471620	T   T   T
 0.002572  0.000833  0.359521	T   T   T
 0.002169  0.500758  0.359657	T   T   T
 0.502586  0.001088  0.359670	T   T   T
 0.502632  0.500857  0.359542	T   T   T
 0.334127  0.166354  0.584883	T   T   T
 0.335677  0.667199  0.583828	T   T   T
 0.837439  0.167237  0.584889	T   T   T
 0.837410  0.669076  0.584832	T   T   T
 0.002626  0.000989  0.529329	T   T   T
 0.001643  0.500186  0.529460	T   T   T
 0.503422  0.001842  0.529565	T   T   T
 0.503225  0.500500  0.529557	T   T   T
 0.335305  0.167391  0.416722	T   T   T
 0.335907  0.667544  0.416404	T   T   T
 0.836145  0.167302  0.416709	T   T   T
 0.836017  0.668158  0.416698	T   T   T
 0.172356  0.338775  0.641793	T   T   T
 0.172216  0.832065  0.641857	T   T   T
 0.669173  0.334092  0.641490	T   T   T
 0.666737  0.832955  0.641424	T   T   T
 0.078224  0.026526  0.715398	T   T   T
 0.156272  0.051822  0.751146	T   T   T
