C1 O25 Ce12
1
 7.707464  0.000000  0.000000
-3.853732  6.674860  0.000000
 0.000000  0.000000 28.319031
Ce O C O
12 24 1 1
Selective Dynamics
Direct
 0.166727  0.333363  0.387629	T   T   T
 0.166667  0.833333  0.387912	T   T   T
 0.666637  0.333363  0.387629	T   T   T
 0.666637  0.833273  0.387629	T   T   T
-0.000102  0.000102  0.612605	T   T   T
-0.000102  0.499796  0.612605	T   T   T
 0.500204  0.000102  0.612605	T   T   T
 0.500000  0.500000  0.614357	T   T   T
 0.333659  0.167318  0.500346	T   T   T
 0.333659  0.666341  0.500346	T   T   T
 0.833333  0.166667  0.500085	T   T   T
 0.832682  0.666341  0.500346	T   T   T
 0.165976  0.332987  0.471371	T   T   T
 0.166667  0.833333  0.471289	T   T   T
 0.667013  0.332987  0.471371	T   T   T
 0.667013  0.834024  0.471371	T   T   T
 0.000203 -0.000203  0.359363	T   T   T
 0.000203  0.500406  0.359363	T   T   T
 0.499594 -0.000203  0.359363	T   T   T
 0.500000  0.500000  0.359284	T   T   T
 0.334259  0.168520  0.584653	T   T   T
 0.334259  0.665741  0.584653	T   T   T
 0.833333  0.166667  0.583515	T   T   T
 0.831480  0.665741  0.584653	T   T   T
 0.000575 -0.000575  0.529227	T   T   T
 0.000575  0.501150  0.529227	T   T   T
 0.498850 -0.000575  0.529227	T   T   T
 0.500000  0.500000  0.529000	T   T   T
 0.333648  0.167297  0.416410	T   T   T
 0.333648  0.666352  0.416410	T   T   T
 0.833333  0.166667  0.416134	T   T   T
 0.832703  0.666352  0.416410	T   T   T
 0.162435  0.331217  0.641491	T   T   T
 0.166667  0.833333  0.641227	T   T   T
 0.668783  0.331217  0.641491	T   T   T
 0.668783  0.837565  0.641491	T   T   T
 0.500000  0.500000  0.717839	T   T   T
 0.500000  0.500000  0.758191	T   T   T
