C1 O25 Ce12
1
 7.707464  0.000000  0.000000
-3.853732  6.674860  0.000000
 0.000000  0.000000 28.319031
Ce O C O
12 24 1 1
Selective Dynamics
Direct
 0.166330  0.333574  0.386967	T   T   T
 0.166348  0.833549  0.386943	T   T   T
 0.666379  0.333575  0.386944	T   T   T
 0.666364  0.833553  0.386872	T   T   T
-0.000146  0.000263  0.612041	T   T   T
 0.000138  0.500444  0.611894	T   T   T
 0.500075  0.000468  0.612114	T   T   T
 0.500318  0.500740  0.612089	T   T   T
 0.333219  0.167088  0.499479	T   T   T
 0.333261  0.667051  0.499483	T   T   T
 0.833118  0.166845  0.499490	T   T   T
 0.833217  0.667033  0.499465	T   T   T
 0.166417  0.333824  0.470582	T   T   T
 0.166485  0.833443  0.470530	T   T   T
 0.666606  0.333665  0.470541	T   T   T
 0.666357  0.833691  0.470660	T   T   T
-0.000462  0.000150  0.358612	T   T   T
-0.000409  0.500214  0.358629	T   T   T
 0.499677  0.000258  0.358617	T   T   T
 0.499768  0.500334  0.358626	T   T   T
 0.333346  0.167212  0.583669	T   T   T
 0.334631  0.667540  0.583319	T   T   T
 0.833076  0.165480  0.583268	T   T   T
 0.832870  0.668213  0.583247	T   T   T
 0.000453  0.000606  0.528350	T   T   T
-0.000207  0.500265  0.528415	T   T   T
 0.499696  0.000618  0.528493	T   T   T
 0.499768  0.500001  0.528435	T   T   T
 0.332983  0.166992  0.415586	T   T   T
 0.333152  0.666859  0.415595	T   T   T
 0.833072  0.166810  0.415641	T   T   T
 0.832933  0.666975  0.415605	T   T   T
 0.165888  0.334577  0.640386	T   T   T
 0.165917  0.832389  0.640229	T   T   T
 0.669777  0.335358  0.639847	T   T   T
 0.666429  0.833677  0.640813	T   T   T
 0.348375  0.202107  0.734149	T   T   T
 0.321447  0.229001  0.772487	T   T   T
