C1 O25 Ce12
1
 7.707464  0.000000  0.000000
-3.853732  6.674860  0.000000
 0.000000  0.000000 28.319031
Ce O C O
12 24 1 1
Selective Dynamics
Direct
 0.165436  0.333115  0.386749	T   T   T
 0.165452  0.833133  0.386731	T   T   T
 0.665388  0.333106  0.386674	T   T   T
 0.665398  0.833082  0.386667	T   T   T
-0.002333 -0.000820  0.611647	T   T   T
-0.002196  0.499239  0.611659	T   T   T
 0.497917 -0.000651  0.611696	T   T   T
 0.498006  0.499206  0.612160	T   T   T
 0.331766  0.166460  0.499273	T   T   T
 0.331750  0.666103  0.499281	T   T   T
 0.831788  0.166279  0.499194	T   T   T
 0.831565  0.666169  0.499207	T   T   T
 0.165132  0.333025  0.470544	T   T   T
 0.165547  0.833108  0.470333	T   T   T
 0.664979  0.332595  0.470350	T   T   T
 0.664915  0.833134  0.470383	T   T   T
-0.001432 -0.000509  0.358467	T   T   T
-0.001450  0.499940  0.358474	T   T   T
 0.498615 -0.000241  0.358388	T   T   T
 0.499004  0.499930  0.358423	T   T   T
 0.330885  0.166742  0.583216	T   T   T
 0.331223  0.665203  0.583152	T   T   T
 0.831862  0.165874  0.582860	T   T   T
 0.831095  0.666183  0.583400	T   T   T
-0.001877 -0.001274  0.528016	T   T   T
-0.002065  0.500039  0.528078	T   T   T
 0.498010 -0.000511  0.528273	T   T   T
 0.498949  0.499778  0.528171	T   T   T
 0.331834  0.166683  0.415377	T   T   T
 0.331866  0.665990  0.415370	T   T   T
 0.832349  0.166565  0.415348	T   T   T
 0.831897  0.666383  0.415489	T   T   T
 0.163043  0.332284  0.640356	T   T   T
 0.165125  0.832990  0.640080	T   T   T
 0.665096  0.331879  0.639790	T   T   T
 0.664334  0.833139  0.640161	T   T   T
 0.318218  0.358886  0.744986	T   T   T
 0.187353  0.324431  0.769693	T   T   T
