C1 O25 Ce12
1
 7.707464  0.000000  0.000000
-3.853732  6.674860  0.000000
 0.000000  0.000000 28.319031
Ce O C O
12 24 1 1
Selective Dynamics
Direct
 0.166921  0.332244  0.386752	T   T   T
 0.166945  0.832164  0.386748	T   T   T
 0.666974  0.332205  0.386749	T   T   T
 0.666916  0.832209  0.386795	T   T   T
 0.000743 -0.001367  0.611681	T   T   T
 0.000868  0.498872  0.612206	T   T   T
 0.500683 -0.001264  0.611771	T   T   T
 0.500847  0.498627  0.611676	T   T   T
 0.333809  0.165484  0.499259	T   T   T
 0.333596  0.665357  0.499340	T   T   T
 0.833872  0.165643  0.499347	T   T   T
 0.833859  0.665407  0.499325	T   T   T
 0.167009  0.332123  0.470406	T   T   T
 0.167288  0.832293  0.470300	T   T   T
 0.666958  0.331884  0.470321	T   T   T
 0.667008  0.832327  0.470298	T   T   T
 0.000149 -0.001320  0.358441	T   T   T
 0.000176  0.498973  0.358394	T   T   T
 0.500260 -0.001168  0.358526	T   T   T
 0.500442  0.498980  0.358436	T   T   T
 0.334323  0.165964  0.582924	T   T   T
 0.333378  0.664576  0.583251	T   T   T
 0.834499  0.166078  0.583203	T   T   T
 0.833852  0.664955  0.583213	T   T   T
 0.000252 -0.001530  0.528187	T   T   T
 0.000450  0.499002  0.528264	T   T   T
 0.500541 -0.001556  0.528263	T   T   T
 0.500820  0.499174  0.528125	T   T   T
 0.333531  0.165679  0.415371	T   T   T
 0.333387  0.665171  0.415392	T   T   T
 0.833959  0.165784  0.415388	T   T   T
 0.833662  0.665442  0.415419	T   T   T
 0.167754  0.330889  0.640379	T   T   T
 0.167783  0.833130  0.639762	T   T   T
 0.667040  0.331678  0.640120	T   T   T
 0.667162  0.832059  0.640049	T   T   T
 0.139191  0.457734  0.744581	T   T   T
 0.176426  0.363874  0.769452	T   T   T
