C1 O25 Ce12
1
 7.707464  0.000000  0.000000
-3.853732  6.674860  0.000000
 0.000000  0.000000 28.319031
Ce O C O
12 24 1 1
Selective Dynamics
Direct
 0.160446  0.330223  0.388080	T   T   T
 0.160336  0.830168  0.388190	T   T   T
 0.660436  0.330236  0.388021	T   T   T
 0.660436  0.830199  0.388021	T   T   T
-0.004764 -0.002562  0.613022	T   T   T
-0.004764  0.497798  0.613022	T   T   T
 0.496065 -0.001967  0.613026	T   T   T
 0.497662  0.498831  0.614355	T   T   T
 0.328439  0.164667  0.500735	T   T   T
 0.328439  0.663773  0.500735	T   T   T
 0.828211  0.164106  0.500509	T   T   T
 0.827785  0.663893  0.500581	T   T   T
 0.160664  0.330331  0.471734	T   T   T
 0.160945  0.830472  0.471607	T   T   T
 0.661782  0.330529  0.471719	T   T   T
 0.661782  0.831252  0.471719	T   T   T
-0.006424 -0.003445  0.359830	T   T   T
-0.006424  0.497021  0.359830	T   T   T
 0.493324 -0.003338  0.359774	T   T   T
 0.493443  0.496722  0.359700	T   T   T
 0.330319  0.166197  0.585060	T   T   T
 0.330319  0.664123  0.585060	T   T   T
 0.827970  0.163986  0.583979	T   T   T
 0.827892  0.663947  0.584634	T   T   T
-0.004246 -0.002561  0.529652	T   T   T
-0.004246  0.498315  0.529652	T   T   T
 0.493897 -0.003052  0.529561	T   T   T
 0.495248  0.497624  0.529425	T   T   T
 0.327391  0.164005  0.416828	T   T   T
 0.327391  0.663387  0.416828	T   T   T
 0.827423  0.163712  0.416678	T   T   T
 0.826883  0.663442  0.416787	T   T   T
 0.157058  0.328528  0.641869	T   T   T
 0.162326  0.831162  0.641615	T   T   T
 0.665177  0.330740  0.641662	T   T   T
 0.665177  0.834435  0.641662	T   T   T
 0.410444  0.455222  0.713553	T   T   T
 0.331313  0.415657  0.749397	T   T   T
