C1 O25 Ce12
1
 7.707464  0.000000  0.000000
-3.853732  6.674860  0.000000
 0.000000  0.000000 28.319031
Ce O C O
12 24 1 1
Selective Dynamics
Direct
 0.165011  0.330396  0.387971	T   T   T
 0.164957  0.830367  0.388141	T   T   T
 0.664854  0.330356  0.387972	T   T   T
 0.664845  0.830285  0.387971	T   T   T
-0.002364 -0.002974  0.612919	T   T   T
-0.002175  0.497002  0.612969	T   T   T
 0.498370 -0.002797  0.612933	T   T   T
 0.498667  0.498046  0.614317	T   T   T
 0.331908  0.164621  0.500713	T   T   T
 0.331793  0.663678  0.500670	T   T   T
 0.831595  0.163970  0.500472	T   T   T
 0.831101  0.663709  0.500634	T   T   T
 0.164401  0.330254  0.471656	T   T   T
 0.164933  0.830635  0.471566	T   T   T
 0.665148  0.330268  0.471680	T   T   T
 0.665288  0.831215  0.471620	T   T   T
-0.001670 -0.003105  0.359736	T   T   T
-0.001572  0.497238  0.359700	T   T   T
 0.498047 -0.003192  0.359677	T   T   T
 0.498200  0.497037  0.359596	T   T   T
 0.332635  0.166403  0.584917	T   T   T
 0.331891  0.662715  0.584909	T   T   T
 0.831234  0.163614  0.583833	T   T   T
 0.829947  0.662877  0.584835	T   T   T
-0.001262 -0.003248  0.529559	T   T   T
-0.001296  0.498160  0.529540	T   T   T
 0.497008 -0.003369  0.529569	T   T   T
 0.498444  0.497730  0.529218	T   T   T
 0.331954  0.164319  0.416701	T   T   T
 0.331829  0.663499  0.416717	T   T   T
 0.831560  0.163844  0.416534	T   T   T
 0.831033  0.663399  0.416678	T   T   T
 0.159186  0.327668  0.641827	T   T   T
 0.164988  0.831226  0.641444	T   T   T
 0.667220  0.328133  0.641669	T   T   T
 0.666089  0.833149  0.641543	T   T   T
 0.446503  0.421007  0.714637	T   T   T
 0.397480  0.348530  0.751071	T   T   T
