C1 O25 Ce12
1
 7.707464  0.000000  0.000000
-3.853732  6.674860  0.000000
 0.000000  0.000000 28.319031
Ce O C O
12 24 1 1
Selective Dynamics
Direct
 0.166011  0.332070  0.386976	T   T   T
 0.165977  0.832110  0.387077	T   T   T
 0.666011  0.332079  0.387010	T   T   T
 0.666019  0.832058  0.386968	T   T   T
-0.000175 -0.001045  0.611881	T   T   T
-0.000087  0.498633  0.611863	T   T   T
 0.500040 -0.001188  0.611907	T   T   T
 0.498846  0.498514  0.612951	T   T   T
 0.333176  0.165938  0.499586	T   T   T
 0.333157  0.665467  0.499553	T   T   T
 0.832874  0.165475  0.499444	T   T   T
 0.832434  0.665310  0.499605	T   T   T
 0.165364  0.331578  0.470578	T   T   T
 0.165854  0.832254  0.470483	T   T   T
 0.666629  0.332051  0.470755	T   T   T
 0.666886  0.832888  0.470582	T   T   T
-0.000592 -0.001350  0.358711	T   T   T
-0.000518  0.498825  0.358728	T   T   T
 0.499100 -0.001479  0.358713	T   T   T
 0.499123  0.498724  0.358630	T   T   T
 0.334625  0.167056  0.583703	T   T   T
 0.334261  0.665388  0.583868	T   T   T
 0.832435  0.165409  0.582774	T   T   T
 0.830997  0.664204  0.583679	T   T   T
 0.000147 -0.001723  0.528541	T   T   T
 0.000529  0.500079  0.528495	T   T   T
 0.498509 -0.001991  0.528449	T   T   T
 0.499286  0.499042  0.528122	T   T   T
 0.333037  0.165912  0.415707	T   T   T
 0.332901  0.665295  0.415714	T   T   T
 0.832655  0.165471  0.415551	T   T   T
 0.832247  0.665130  0.415704	T   T   T
 0.162810  0.330203  0.640210	T   T   T
 0.166301  0.832286  0.640472	T   T   T
 0.668940  0.330255  0.640765	T   T   T
 0.669171  0.836683  0.640636	T   T   T
 0.551578  0.512486  0.712871	T   T   T
 0.611608  0.529905  0.750524	T   T   T
