C1 O25 Ce12
1
 7.707464  0.000000  0.000000
-3.853732  6.674860  0.000000
 0.000000  0.000000 28.319031
Ce O C O
12 24 1 1
Selective Dynamics
Direct
 0.167964  0.333244  0.387742	T   T   T
 0.167999  0.833361  0.387812	T   T   T
 0.668048  0.333330  0.387964	T   T   T
 0.668184  0.833428  0.387735	T   T   T
 0.000905  0.000204  0.614415	T   T   T
 0.002224  0.499952  0.612822	T   T   T
 0.501903 -0.000420  0.612798	T   T   T
 0.501750  0.499848  0.612824	T   T   T
 0.333887  0.166292  0.500559	T   T   T
 0.334801  0.666681  0.500260	T   T   T
 0.834915  0.166635  0.500438	T   T   T
 0.835144  0.667506  0.500542	T   T   T
 0.168246  0.333675  0.471521	T   T   T
 0.168253  0.833525  0.471592	T   T   T
 0.667879  0.333245  0.471390	T   T   T
 0.667700  0.833306  0.471449	T   T   T
 0.001118 -0.000031  0.359320	T   T   T
 0.001334  0.499816  0.359478	T   T   T
 0.501690 -0.000015  0.359530	T   T   T
 0.501598  0.500097  0.359565	T   T   T
 0.332593  0.165538  0.584803	T   T   T
 0.335445  0.665883  0.583683	T   T   T
 0.835902  0.166418  0.584666	T   T   T
 0.836125  0.668561  0.584905	T   T   T
 0.000806  0.000055  0.529305	T   T   T
 0.000558  0.499890  0.529358	T   T   T
 0.501907  0.000915  0.529426	T   T   T
 0.502482  0.499426  0.529369	T   T   T
 0.334045  0.166242  0.416473	T   T   T
 0.334429  0.666682  0.416444	T   T   T
 0.835092  0.166657  0.416528	T   T   T
 0.835282  0.667212  0.416555	T   T   T
 0.169917  0.336872  0.641702	T   T   T
 0.171700  0.830590  0.641745	T   T   T
 0.667945  0.332984  0.641336	T   T   T
 0.665492  0.832326  0.641493	T   T   T
 0.053920 -0.000976  0.716713	T   T   T
 0.113041  0.001047  0.753857	T   T   T
