C1 O25 Ce12
1
 7.707464  0.000000  0.000000
-3.853732  6.674860  0.000000
 0.000000  0.000000 28.319031
Ce O C O
12 24 1 1
Selective Dynamics
Direct
 0.167440  0.333596  0.386896	T   T   T
 0.167452  0.833734  0.386892	T   T   T
 0.667478  0.333663  0.386923	T   T   T
 0.667374  0.833596  0.386839	T   T   T
 0.000519  0.000653  0.612048	T   T   T
 0.000704  0.500897  0.611616	T   T   T
 0.500566  0.000464  0.611839	T   T   T
 0.500583  0.500945  0.611826	T   T   T
 0.333624  0.166888  0.499413	T   T   T
 0.333838  0.667082  0.499315	T   T   T
 0.833724  0.166689  0.499311	T   T   T
 0.833826  0.667255  0.499321	T   T   T
 0.167225  0.333200  0.470461	T   T   T
 0.167072  0.834083  0.470465	T   T   T
 0.666922  0.333625  0.470579	T   T   T
 0.667269  0.833508  0.470506	T   T   T
 0.000640  0.000262  0.358553	T   T   T
 0.000926  0.500318  0.358646	T   T   T
 0.500990  0.000094  0.358602	T   T   T
 0.500926  0.500649  0.358640	T   T   T
 0.334087  0.167299  0.583513	T   T   T
 0.334880  0.668294  0.583206	T   T   T
 0.832706  0.165684  0.582971	T   T   T
 0.833489  0.667910  0.583069	T   T   T
 0.000981  0.000621  0.528293	T   T   T
 0.000877  0.500596  0.528083	T   T   T
 0.499871  0.000138  0.528188	T   T   T
 0.499983  0.500213  0.528374	T   T   T
 0.334220  0.167011  0.415452	T   T   T
 0.333751  0.666924  0.415650	T   T   T
 0.833970  0.166998  0.415553	T   T   T
 0.834112  0.666890  0.415540	T   T   T
 0.165468  0.335048  0.639593	T   T   T
 0.166400  0.833023  0.640118	T   T   T
 0.668922  0.334798  0.640068	T   T   T
 0.666781  0.833346  0.640582	T   T   T
 0.345909  0.197864  0.736969	T   T   T
 0.412274  0.230588  0.774205	T   T   T
