C1 O25 Ce12
1
 7.707464  0.000000  0.000000
-3.853732  6.674860  0.000000
 0.000000  0.000000 28.319031
Ce O C O
12 24 1 1
Selective Dynamics
Direct
 0.165617  0.329196  0.388091	T   T   T
 0.165565  0.829570  0.388229	T   T   T
 0.665609  0.329426  0.388037	T   T   T
 0.665783  0.829429  0.388018	T   T   T
-0.001917 -0.005515  0.612858	T   T   T
-0.002214  0.494018  0.612892	T   T   T
 0.498237 -0.005607  0.612848	T   T   T
 0.498435  0.495205  0.614423	T   T   T
 0.332480  0.163005  0.500653	T   T   T
 0.332720  0.661953  0.500587	T   T   T
 0.832207  0.162357  0.500443	T   T   T
 0.831801  0.661827  0.500595	T   T   T
 0.164630  0.328679  0.471830	T   T   T
 0.165379  0.828889  0.471739	T   T   T
 0.666681  0.329013  0.471582	T   T   T
 0.666343  0.830197  0.471782	T   T   T
-0.000621 -0.003964  0.359684	T   T   T
-0.000914  0.496578  0.359849	T   T   T
 0.498312 -0.003927  0.359866	T   T   T
 0.498757  0.495849  0.359737	T   T   T
 0.333121  0.164009  0.584917	T   T   T
 0.332875  0.660796  0.584797	T   T   T
 0.830534  0.160957  0.583905	T   T   T
 0.829865  0.659677  0.584874	T   T   T
-0.000888 -0.005201  0.529674	T   T   T
-0.000549  0.496193  0.529536	T   T   T
 0.497339 -0.005023  0.529383	T   T   T
 0.499151  0.495608  0.529094	T   T   T
 0.332378  0.163184  0.416894	T   T   T
 0.332866  0.662470  0.416823	T   T   T
 0.832366  0.162464  0.416462	T   T   T
 0.831746  0.662726  0.416747	T   T   T
 0.159773  0.325758  0.641360	T   T   T
 0.165158  0.828268  0.641326	T   T   T
 0.667123  0.324726  0.642041	T   T   T
 0.666470  0.829889  0.641470	T   T   T
 0.478368  0.403873  0.715254	T   T   T
 0.458304  0.319004  0.749819	T   T   T
