C1 O25 Ce12
1
 7.707464  0.000000  0.000000
-3.853732  6.674860  0.000000
 0.000000  0.000000 28.319031
Ce O C O
12 24 1 1
Selective Dynamics
Direct
 0.167789  0.332923  0.386699	T   T   T
 0.167668  0.832957  0.386835	T   T   T
 0.667606  0.332996  0.386758	T   T   T
 0.667744  0.832934  0.386695	T   T   T
 0.001378  0.000707  0.612378	T   T   T
 0.001455  0.500469  0.611795	T   T   T
 0.501683  0.000553  0.611792	T   T   T
 0.501389  0.500516  0.611747	T   T   T
 0.334328  0.166619  0.499270	T   T   T
 0.334568  0.666689  0.499175	T   T   T
 0.834630  0.166635  0.499207	T   T   T
 0.834600  0.666865  0.499263	T   T   T
 0.167914  0.333404  0.470262	T   T   T
 0.167790  0.833266  0.470442	T   T   T
 0.667846  0.333489  0.470218	T   T   T
 0.667847  0.833265  0.470364	T   T   T
 0.001126 -0.000724  0.358590	T   T   T
 0.001011  0.499419  0.358662	T   T   T
 0.500850 -0.000697  0.358652	T   T   T
 0.500985  0.499194  0.358192	T   T   T
 0.334186  0.166548  0.583270	T   T   T
 0.334666  0.667358  0.583011	T   T   T
 0.834903  0.167132  0.583393	T   T   T
 0.835152  0.667475  0.583282	T   T   T
 0.001042  0.000418  0.528289	T   T   T
 0.000942  0.499776  0.528171	T   T   T
 0.501760  0.000622  0.528147	T   T   T
 0.501204  0.499707  0.528153	T   T   T
 0.334321  0.166383  0.415425	T   T   T
 0.334584  0.666327  0.415448	T   T   T
 0.834460  0.166343  0.415387	T   T   T
 0.834319  0.666486  0.415448	T   T   T
 0.168844  0.335312  0.640068	T   T   T
 0.169007  0.834361  0.640588	T   T   T
 0.668009  0.333922  0.640245	T   T   T
 0.667367  0.833234  0.640125	T   T   T
 0.147131  0.010467  0.744244	T   T   T
 0.252339 -0.013349  0.768424	T   T   T
