C1 O25 Ce12
1
 7.707464  0.000000  0.000000
-3.853732  6.674860  0.000000
 0.000000  0.000000 28.319031
Ce O C O
12 24 1 1
Selective Dynamics
Direct
 0.166221  0.332872  0.387759	T   T   T
 0.166138  0.832819  0.387907	T   T   T
 0.666140  0.332893  0.387744	T   T   T
 0.666124  0.832745  0.387743	T   T   T
-0.000980 -0.000760  0.612682	T   T   T
-0.000960  0.498983  0.612707	T   T   T
 0.499440 -0.000685  0.612660	T   T   T
 0.499624  0.499582  0.614174	T   T   T
 0.333030  0.166699  0.500432	T   T   T
 0.332992  0.665736  0.500427	T   T   T
 0.832713  0.166052  0.500231	T   T   T
 0.832248  0.665801  0.500412	T   T   T
 0.165595  0.332443  0.471495	T   T   T
 0.166119  0.832812  0.471329	T   T   T
 0.666302  0.332379  0.471454	T   T   T
 0.666385  0.833401  0.471427	T   T   T
-0.000511 -0.000625  0.359524	T   T   T
-0.000468  0.499654  0.359510	T   T   T
 0.499360 -0.000600  0.359527	T   T   T
 0.499602  0.499609  0.359328	T   T   T
 0.333499  0.167982  0.584606	T   T   T
 0.333223  0.664739  0.584631	T   T   T
 0.832698  0.166105  0.583679	T   T   T
 0.831087  0.664994  0.584599	T   T   T
-0.000237 -0.001146  0.529335	T   T   T
-0.000185  0.500236  0.529303	T   T   T
 0.498265 -0.001230  0.529348	T   T   T
 0.499634  0.499625  0.529050	T   T   T
 0.333070  0.166753  0.416483	T   T   T
 0.332975  0.665763  0.416500	T   T   T
 0.832940  0.166270  0.416374	T   T   T
 0.832326  0.665853  0.416497	T   T   T
 0.161610  0.330266  0.641666	T   T   T
 0.165925  0.832646  0.641208	T   T   T
 0.667749  0.330476  0.641473	T   T   T
 0.667759  0.836226  0.641319	T   T   T
 0.470437  0.470733  0.717015	T   T   T
 0.440997  0.440786  0.756554	T   T   T
