C1 O25 Ce12
1
 7.707464  0.000000  0.000000
-3.853732  6.674860  0.000000
 0.000000  0.000000 28.319031
Ce O C O
12 24 1 1
Selective Dynamics
Direct
 0.168246  0.334920  0.387900	T   T   T
 0.168229  0.834890  0.387897	T   T   T
 0.668159  0.334885  0.388042	T   T   T
 0.668176  0.834875  0.387913	T   T   T
 0.000790  0.000615  0.614311	T   T   T
 0.001559  0.501624  0.612866	T   T   T
 0.501509  0.001231  0.612783	T   T   T
 0.501967  0.501803  0.612804	T   T   T
 0.333954  0.167765  0.500517	T   T   T
 0.334765  0.668030  0.500390	T   T   T
 0.835537  0.167907  0.500549	T   T   T
 0.835319  0.668755  0.500516	T   T   T
 0.168702  0.335342  0.471634	T   T   T
 0.168797  0.834852  0.471584	T   T   T
 0.668054  0.334806  0.471491	T   T   T
 0.667627  0.834607  0.471533	T   T   T
 0.001279  0.001337  0.359576	T   T   T
 0.001336  0.501660  0.359606	T   T   T
 0.501727  0.001789  0.359744	T   T   T
 0.501879  0.501801  0.359649	T   T   T
 0.332682  0.167219  0.584623	T   T   T
 0.334057  0.667769  0.583788	T   T   T
 0.836604  0.167827  0.584775	T   T   T
 0.836213  0.669316  0.584674	T   T   T
 0.001076  0.000947  0.529128	T   T   T
 0.000834  0.500951  0.529360	T   T   T
 0.502272  0.002390  0.529514	T   T   T
 0.502115  0.501348  0.529476	T   T   T
 0.334106  0.168021  0.416597	T   T   T
 0.334710  0.668027  0.416552	T   T   T
 0.835536  0.168158  0.416654	T   T   T
 0.835371  0.669009  0.416634	T   T   T
 0.171199  0.339494  0.641830	T   T   T
 0.170234  0.833731  0.641593	T   T   T
 0.668014  0.334681  0.641364	T   T   T
 0.664441  0.832771  0.641074	T   T   T
 0.051942  0.055998  0.716029	T   T   T
 0.113203  0.111069  0.753148	T   T   T
