C1 O25 Ce12
1
 7.707464  0.000000  0.000000
-3.853732  6.674860  0.000000
 0.000000  0.000000 28.319031
Ce O C O
12 24 1 1
Selective Dynamics
Direct
 0.167672  0.333381  0.387755	T   T   T
 0.167686  0.833158  0.387765	T   T   T
 0.667903  0.333367  0.387773	T   T   T
 0.667758  0.833297  0.387932	T   T   T
 0.001849 -0.000018  0.612728	T   T   T
 0.001265  0.500095  0.614356	T   T   T
 0.501645  0.000184  0.612701	T   T   T
 0.501858  0.499928  0.612695	T   T   T
 0.334628  0.166690  0.500257	T   T   T
 0.333991  0.666314  0.500506	T   T   T
 0.834990  0.167255  0.500491	T   T   T
 0.834922  0.666430  0.500457	T   T   T
 0.168175  0.333260  0.471441	T   T   T
 0.168242  0.833750  0.471442	T   T   T
 0.667421  0.333049  0.471411	T   T   T
 0.667823  0.833324  0.471357	T   T   T
 0.000851 -0.000122  0.359498	T   T   T
 0.001031  0.499947  0.359355	T   T   T
 0.501206 -0.000083  0.359538	T   T   T
 0.501202  0.500206  0.359518	T   T   T
 0.334728  0.166769  0.583703	T   T   T
 0.332937  0.665446  0.584587	T   T   T
 0.836280  0.168368  0.584634	T   T   T
 0.835842  0.666240  0.584562	T   T   T
 0.000351 -0.000469  0.529290	T   T   T
 0.001225  0.499938  0.529114	T   T   T
 0.502032 -0.000502  0.529374	T   T   T
 0.501979  0.501122  0.529307	T   T   T
 0.334396  0.166627  0.416303	T   T   T
 0.333938  0.666422  0.416524	T   T   T
 0.834730  0.167139  0.416532	T   T   T
 0.834779  0.666428  0.416502	T   T   T
 0.171027  0.331108  0.641723	T   T   T
 0.170398  0.837236  0.641404	T   T   T
 0.665340  0.331880  0.641264	T   T   T
 0.668026  0.833271  0.641186	T   T   T
 0.057575  0.499310  0.717896	T   T   T
 0.114522  0.500255  0.755234	T   T   T
