C1 O25 Ce12
1
 7.707464  0.000000  0.000000
-3.853732  6.674860  0.000000
 0.000000  0.000000 28.319031
Ce O C O
12 24 1 1
Selective Dynamics
Direct
 0.169899  0.333698  0.388197	T   T   T
 0.169926  0.833575  0.388145	T   T   T
 0.670001  0.333665  0.388163	T   T   T
 0.669904  0.833643  0.388278	T   T   T
 0.003667 -0.000537  0.613006	T   T   T
 0.002479  0.499787  0.614129	T   T   T
 0.503292 -0.000332  0.612996	T   T   T
 0.503720  0.499413  0.612925	T   T   T
 0.336638  0.166667  0.500584	T   T   T
 0.336149  0.666409  0.500770	T   T   T
 0.836903  0.167189  0.500761	T   T   T
 0.836916  0.666655  0.500660	T   T   T
 0.170410  0.333301  0.471886	T   T   T
 0.170488  0.834149  0.471809	T   T   T
 0.669212  0.333005  0.471789	T   T   T
 0.669803  0.833401  0.471680	T   T   T
 0.002976  0.000259  0.359936	T   T   T
 0.003210  0.500322  0.359785	T   T   T
 0.503468  0.000195  0.359963	T   T   T
 0.503427  0.500634  0.359946	T   T   T
 0.336431  0.166152  0.583926	T   T   T
 0.334526  0.664860  0.584864	T   T   T
 0.838111  0.168125  0.584917	T   T   T
 0.837769  0.666148  0.584843	T   T   T
 0.002244 -0.000595  0.529602	T   T   T
 0.002966  0.500018  0.529285	T   T   T
 0.503988 -0.000625  0.529733	T   T   T
 0.504147  0.500999  0.529658	T   T   T
 0.336522  0.166917  0.416720	T   T   T
 0.336005  0.666599  0.416909	T   T   T
 0.836972  0.167496  0.416950	T   T   T
 0.836948  0.666720  0.416898	T   T   T
 0.173082  0.330171  0.641888	T   T   T
 0.172362  0.836924  0.641593	T   T   T
 0.666863  0.331453  0.641360	T   T   T
 0.669669  0.832756  0.641493	T   T   T
 0.071299  0.499069  0.713111	T   T   T
 0.140943  0.501710  0.748957	T   T   T
