C1 O25 Ce12
1
 7.707464  0.000000  0.000000
-3.853732  6.674860  0.000000
 0.000000  0.000000 28.319031
Ce O C O
12 24 1 1
Selective Dynamics
Direct
 0.168164  0.335576  0.388064	T   T   T
 0.168209  0.835822  0.387935	T   T   T
 0.668158  0.335541  0.388146	T   T   T
 0.668383  0.835816  0.387925	T   T   T
 0.001822  0.002759  0.614382	T   T   T
 0.002485  0.503837  0.612817	T   T   T
 0.502207  0.003246  0.612816	T   T   T
 0.502636  0.503891  0.612803	T   T   T
 0.334492  0.169178  0.500642	T   T   T
 0.335243  0.669602  0.500364	T   T   T
 0.835460  0.169193  0.500629	T   T   T
 0.835445  0.670031  0.500498	T   T   T
 0.168546  0.336385  0.471786	T   T   T
 0.168935  0.835962  0.471588	T   T   T
 0.668332  0.335677  0.471462	T   T   T
 0.667838  0.836052  0.471626	T   T   T
 0.001652  0.002523  0.359617	T   T   T
 0.001117  0.502067  0.359898	T   T   T
 0.501805  0.002974  0.359542	T   T   T
 0.501670  0.502039  0.359880	T   T   T
 0.333196  0.169719  0.584818	T   T   T
 0.335458  0.669373  0.583760	T   T   T
 0.837438  0.169733  0.584780	T   T   T
 0.836244  0.671523  0.584880	T   T   T
 0.001600  0.002289  0.529292	T   T   T
 0.000881  0.502823  0.529456	T   T   T
 0.502382  0.004186  0.529649	T   T   T
 0.502891  0.502655  0.529414	T   T   T
 0.334424  0.168915  0.416756	T   T   T
 0.335003  0.669189  0.416558	T   T   T
 0.835239  0.168861  0.416734	T   T   T
 0.835120  0.669517  0.416731	T   T   T
 0.171735  0.342166  0.642095	T   T   T
 0.171542  0.835418  0.641312	T   T   T
 0.668829  0.336618  0.641309	T   T   T
 0.665633  0.835886  0.641359	T   T   T
 0.052370  0.077671  0.715084	T   T   T
 0.099638  0.148620  0.751706	T   T   T
