C1 O25 Ce12
1
 7.707464  0.000000  0.000000
-3.853732  6.674860  0.000000
 0.000000  0.000000 28.319031
Ce O C O
12 24 1 1
Selective Dynamics
Direct
 0.167330  0.334117  0.386197	T   T   T
 0.167545  0.834279  0.386254	T   T   T
 0.667308  0.333994  0.386291	T   T   T
 0.667345  0.834299  0.386263	T   T   T
 0.001973  0.002645  0.611896	T   T   T
 0.002111  0.502655  0.611519	T   T   T
 0.501882  0.002339  0.611638	T   T   T
 0.502135  0.502630  0.611519	T   T   T
 0.334637  0.168346  0.498994	T   T   T
 0.334713  0.668271  0.498930	T   T   T
 0.834878  0.168314  0.498988	T   T   T
 0.834828  0.668468  0.499016	T   T   T
 0.168172  0.335023  0.469795	T   T   T
 0.167740  0.834651  0.470097	T   T   T
 0.667946  0.335149  0.470055	T   T   T
 0.667866  0.834460  0.470075	T   T   T
 0.000818  0.001278  0.357948	T   T   T
 0.000699  0.500334  0.358003	T   T   T
 0.500732  0.000839  0.357896	T   T   T
 0.500213  0.500441  0.358031	T   T   T
 0.334781  0.168763  0.583046	T   T   T
 0.334672  0.668809  0.582830	T   T   T
 0.835675  0.169100  0.583111	T   T   T
 0.835861  0.669448  0.582846	T   T   T
 0.001656  0.002231  0.528002	T   T   T
 0.001430  0.501530  0.527928	T   T   T
 0.501832  0.002150  0.528014	T   T   T
 0.501472  0.501759  0.528019	T   T   T
 0.334257  0.167038  0.415030	T   T   T
 0.334470  0.668450  0.414987	T   T   T
 0.833536  0.167176  0.415068	T   T   T
 0.834422  0.667915  0.414956	T   T   T
 0.169603  0.336851  0.640248	T   T   T
 0.168896  0.835830  0.640017	T   T   T
 0.668761  0.335962  0.639896	T   T   T
 0.667754  0.835009  0.639613	T   T   T
 0.033078  0.183418  0.750420	T   T   T
 0.139197  0.311583  0.774679	T   T   T
