C1 O25 Ce12
1
 7.707464  0.000000  0.000000
-3.853732  6.674860  0.000000
 0.000000  0.000000 28.319031
Ce O C O
12 24 1 1
Selective Dynamics
Direct
 0.167497  0.332984  0.386936	T   T   T
 0.167619  0.832980  0.386833	T   T   T
 0.667516  0.332921  0.386813	T   T   T
 0.667426  0.833044  0.386936	T   T   T
 0.001706  0.000605  0.611922	T   T   T
 0.001692  0.500950  0.612763	T   T   T
 0.501594  0.000597  0.611978	T   T   T
 0.502050  0.500658  0.611910	T   T   T
 0.334543  0.166738  0.499414	T   T   T
 0.334149  0.666673  0.499562	T   T   T
 0.834525  0.167020  0.499548	T   T   T
 0.834622  0.666691  0.499456	T   T   T
 0.167645  0.333317  0.470671	T   T   T
 0.167948  0.833368  0.470521	T   T   T
 0.667702  0.333157  0.470571	T   T   T
 0.667594  0.833517  0.470500	T   T   T
 0.000874 -0.000411  0.358714	T   T   T
 0.000927  0.499520  0.358628	T   T   T
 0.500807 -0.000575  0.358420	T   T   T
 0.500729  0.499471  0.358698	T   T   T
 0.335305  0.167685  0.582982	T   T   T
 0.334019  0.666442  0.583512	T   T   T
 0.835412  0.167939  0.583470	T   T   T
 0.834964  0.666921  0.583687	T   T   T
 0.000715 -0.000396  0.528369	T   T   T
 0.001030  0.500630  0.528588	T   T   T
 0.501424 -0.000070  0.528428	T   T   T
 0.501976  0.501063  0.528336	T   T   T
 0.334374  0.166342  0.415594	T   T   T
 0.334111  0.666358  0.415621	T   T   T
 0.834162  0.166524  0.415609	T   T   T
 0.834266  0.666265  0.415615	T   T   T
 0.169181  0.332581  0.640398	T   T   T
 0.169307  0.835666  0.640198	T   T   T
 0.667709  0.333317  0.640407	T   T   T
 0.667574  0.833863  0.640439	T   T   T
 0.149194  0.507293  0.739781	T   T   T
 0.250556  0.488353  0.766287	T   T   T
