Ce16 C1 O33
1.0
7.707464 0.000000 0.000000
0.000000 10.900000 0.000000
0.000000 0.000000 23.122392
Ce O C O
16 32 1 1
Selective dynamics
direct
0.500000 0.000000 0.458333 T T T Ce
0.500000 0.500000 0.458333 T T T Ce
0.000000 0.000000 0.458333 T T T Ce
1.000000 0.500000 0.458333 T T T Ce
0.000000 0.000000 0.625000 T T T Ce
0.000000 0.500000 0.625000 T T T Ce
0.500000 0.000000 0.625000 T T T Ce
0.500000 0.500000 0.625000 T T T Ce
0.250000 0.250000 0.375000 T T T Ce
0.250000 0.750000 0.375000 T T T Ce
0.750000 0.250000 0.375000 T T T Ce
0.750000 0.750000 0.375000 T T T Ce
0.250000 0.250000 0.541667 T T T Ce
0.250000 0.750000 0.541667 T T T Ce
0.750000 0.250000 0.541667 T T T Ce
0.750000 0.750000 0.541667 T T T Ce
0.000000 0.375000 0.375000 T T T O
1.000000 0.875000 0.375000 T T T O
0.500000 0.375000 0.375000 T T T O
0.500000 0.875000 0.375000 T T T O
0.000000 0.375000 0.541667 T T T O
1.000000 0.875000 0.541667 T T T O
0.500000 0.375000 0.541667 T T T O
0.500000 0.875000 0.541667 T T T O
0.250000 0.375000 0.625000 T T T O
0.250000 0.875000 0.625000 T T T O
0.750000 0.375000 0.625000 T T T O
0.750000 0.875000 0.625000 T T T O
0.250000 0.375000 0.458333 T T T O
0.250000 0.875000 0.458333 T T T O
0.750000 0.375000 0.458333 T T T O
0.750000 0.875000 0.458333 T T T O
0.250000 0.125000 0.625000 T T T O
0.250000 0.625000 0.625000 T T T O
0.750000 0.125000 0.625000 T T T O
0.750000 0.625000 0.625000 T T T O
0.250000 0.125000 0.458333 T T T O
0.250000 0.625000 0.458333 T T T O
0.750000 0.125000 0.458333 T T T O
0.750000 0.625000 0.458333 T T T O
0.000000 0.125000 0.375000 T T T O
1.000000 0.625000 0.375000 T T T O
0.500000 0.125000 0.375000 T T T O
0.500000 0.625000 0.375000 T T T O
0.000000 0.125000 0.541667 T T T O
1.000000 0.625000 0.541667 T T T O
0.500000 0.125000 0.541667 T T T O
0.500000 0.625000 0.541667 T T T O
-0.000000 0.107143 0.756842 T T T C
-0.000000 0.107143 0.806231 T T T O
